*yield
50
182.62305003687698 661.3864440848602 667.9603868460736 1428.1990362071958 207.19179622111085 10.0
163.93883975594576 615.1169733193881 621.3093753144602 1337.7545498444408 187.0897422311234 40.40816326530612
149.2484304169511 578.7351203774799 584.6301507627606 1266.6262857895038 171.28617856800932 70.81632653061224
137.87112624879592 550.5596436941989 556.2245444184863 1211.5450072668464 159.04714567412933 101.22448979591837
128.8218059499792 528.1474780403814 533.6285204802795 1167.7360982486834 149.31126126634933 131.6326530612245
121.46273793367166 509.92449231160504 515.2558858582382 1132.1117292351478 141.39546114204887 162.0408163265306
115.3705890823227 494.8356070496382 500.04372698609086 1102.6145126237043 134.8415371071113 192.44897959183675
110.24747925725397 482.14896391443517 487.2527875943193 1077.8092216575 129.33045560843766 222.85714285714286
105.88363174376147 471.3402427413382 476.356003711052 1056.681255769765 124.6357724996947 253.26530612244898
102.12312476755132 462.0269271586805 466.96713239666457 1038.4772664566513 120.59069817452787 283.6734693877551
98.85051275619385 453.9233321654289 458.79717645293084 1022.6371416668084 117.07016667724457 314.0816326530612
95.97820184939692 446.80994394523753 451.6247942950526 1008.7284088554013 113.98059345431996 344.48979591836735
93.43753153687899 440.51788554835696 445.2810534571035 996.4248781400673 111.24664879142749 374.8979591836735
91.17465747713824 434.9136468530785 439.63216476639155 985.4435899466076 108.81284719215996 405.3061224489796
89.146982470049 429.8920059698462 434.56905311773505 974.8393169483205 106.63134018147365 435.7142857142857
87.31988014436351 425.3669318093137 430.00653920004663 964.2350439500334 104.66587293594996 466.1224489795918
85.66517288355078 421.27103389453725 425.87743678139475 953.6307709517463 102.88947943286202 496.53061224489795
84.15981451244853 417.3168874081256 421.88983250154865 943.0264979534592 100.79649173795801 526.9387755102041
82.78462710601589 413.6287837725525 418.1714361766335 932.422224955172 98.72715300442022 557.3469387755102
81.5234609298768 410.19960323289104 414.7480934061423 921.8179519568849 96.80016063837002 587.7551020408163
80.36293310044907 406.80860934010326 411.4699544383033 911.2136789585978 95.10095890399869 618.1632653061224
79.2914308195972 403.4176154473155 408.1919052448772 900.6094059603107 93.67124564496719 648.5714285714286
78.29913052676427 400.02662155452765 404.9138560514511 890.0051329620236 92.47795702443435 678.9795918367347
77.37767513670713 396.6356276617399 401.635806858025 879.4008599637365 91.45002137364287 709.3877551020408
76.5187002945112 393.2446337689521 398.35775766459886 868.7965869654494 90.52614820100584 739.795918367347
75.6792298214121 389.8536398761643 395.0797084711728 858.1923139671624 89.67156155169953 770.204081632653
74.83975934831297 386.4626459833765 391.8016592777467 847.5880409688752 88.87404646478365 800.6122448979592
74.00028887521385 383.0716520905887 388.5236100843206 836.9837679705881 88.11395439055221 831.0204081632653
73.16081840211473 379.68065819780094 385.24556089089447 826.379494972301 87.35557967397239 861.4285714285714
72.3213479290156 376.2896643050131 381.96751169746835 815.7752219740139 86.59720495739256 891.8367346938776
71.48187745591649 372.89867041222533 378.68946250404224 805.1709489757268 85.83883024081275 922.2448979591836
70.64240698281736 369.50767651943755 375.4114133106161 794.5666759774397 85.08045552423293 952.6530612244898
69.80293650971825 366.1166826266498 372.13336411719007 783.9624029791526 84.32208080765311 983.0612244897959
68.96346603661912 362.72568873386194 368.85531492376396 773.3581299808654 83.5637060910733 1013.469387755102
68.12399556352 359.33469484107417 365.57726573033784 762.7538569825783 82.80533137449348 1043.8775510204082
67.28452509042089 355.9437009482864 362.29921653691173 752.1495839842912 82.04695665791365 1074.2857142857142
66.44505461732176 352.55270705549856 359.0211673434856 741.5453109860041 81.28858194133383 1104.6938775510205
65.60558414422263 349.1617131627108 355.7431181500595 730.941037987717 80.53020722475402 1135.1020408163265
64.76611367112352 345.770719269923 352.46506895663344 720.3367649894299 79.7718325081742 1165.5102040816325
63.926643198024394 342.37972537713523 349.18701976320733 709.7324919911428 79.01345779159438 1195.9183673469388
63.08717272492528 338.98873148434745 345.9089705697812 699.1282189928556 78.25508307501457 1226.3265306122448
62.247702251826155 335.5977375915596 342.6309213763551 688.5239459945685 77.49670835843474 1256.734693877551
61.408231778727036 332.20674369877185 339.352872182929 677.9196729962814 76.73833364185492 1287.142857142857
60.568761305627916 328.81574980598407 336.0748229895029 667.3153999979944 75.97995892527511 1317.5510204081631
59.72929083252879 325.42475591319624 332.79677379607676 656.7111269997072 75.22158420869529 1347.9591836734694
58.88982035942968 322.03376202040846 329.5187246026507 646.1068540014202 74.46320949211548 1378.3673469387754
58.05034988633055 318.6427681276207 326.24067540922454 635.502581003133 73.70483477553566 1408.7755102040817
57.21087941323143 315.2517742348329 322.9626262157985 624.898308004846 72.94646005895584 1439.1836734693877
56.371408940132305 311.8607803420451 319.68457702237237 614.2940350065587 72.18808534237601 1469.591836734694
55.531938467033186 308.4697864492573 316.40652782894625 603.6897620082716 71.4297106257962 1500.0
*shear
50
81896.80201859956 81920.87189978115 81920.87189978115 81908.63279131352 77676.03196280765 10.0
81325.45118750421 81349.63473630244 81349.63473630244 81337.09908764195 76531.07486041752 40.40816326530612
80735.61557404288 80760.69102082233 80760.69102082233 80747.16497503944 75384.85064120086 70.81632653061224
80104.23378757296 80131.93929498176 80131.93929498176 80115.85090157624 74237.16669348314 101.22448979591837
79416.44587622832 79449.14442290904 79449.14442290904 79428.33814290303 73088.01461574588 131.6326530612245
78662.96695744176 78703.39724546538 78703.39724546538 78675.38058516165 71937.39529326264 162.0408163265306
77838.2119902633 77889.36955017169 77889.36955017169 77851.41499433691 70785.32317902241 192.44897959183675
76939.21854849743 77004.21091035962 77004.21091035962 76953.49370749525 69631.80916570197 222.85714285714286
75964.85052347524 76046.82791970512 76046.82791970512 75980.46266672177 68476.85004293172 253.26530612244898
74915.28323038995 75017.39959686685 75017.39959686685 74932.52638214715 67320.45082680682 283.6734693877551
73791.67735685033 73917.04343152962 73917.04343152962 73810.82576995472 66162.62030928527 314.0816326530612
72595.95425330903 72747.58000798679 72747.58000798679 72617.25568590456 65003.372490116606 344.48979591836735
71330.54045598938 71511.36403079024 71511.36403079024 71354.27189432287 63842.70723201075 374.8979591836735
69998.34649153569 70211.16072010322 70211.16072010322 70026.24778342861 62680.62405260985 405.3061224489796
68602.58131061877 68850.05399556548 68850.05399556548 68678.64469615418 61517.13405901693 435.7142857142857
67146.71523541804 67431.37781268191 67431.37781268191 67331.04160887975 60352.24564935594 466.1224489795918
65634.44801630128 65958.66278434212 65958.66278434212 65983.4385216053 59185.99368061037 496.53061224489795
64069.61781148071 64435.5961546769 64435.5961546769 64635.835434330875 58013.48279380266 526.9387755102041
62456.207945161936 62866.18665120526 62866.18665120526 63288.23234705643 56838.213979633176 557.3469387755102
60798.29533275892 61239.61351850303 61239.61351850303 61940.62925978199 55661.58753367045 587.7551020408163
59100.04551344971 59591.29715656362 59591.29715656362 60593.026172507554 54484.690220208235 618.1632653061224
57365.693303297056 57942.96113255432 57942.96113255432 59245.42308523312 53308.170893031776 648.5714285714286
55599.52940223076 56294.62510854503 56294.62510854503 57897.81999795868 52131.87679102984 678.9795918367347
53805.86641666076 54646.28908453573 54646.28908453573 56550.21691068424 50955.18889908256 709.3877551020408
51989.142470247454 52997.95306052644 52997.95306052644 55202.6138234098 49777.54773622708 739.795918367347
50155.97225442155 51349.617036517135 51349.617036517135 53855.01073613537 48598.65361209017 770.204081632653
48311.59252483078 49701.28101250784 49701.28101250784 52507.407648860935 47418.44149504322 800.6122448979592
46460.0121963953 48052.944988498544 48052.944988498544 51159.8045615865 46237.82306888002 831.0204081632653
44605.24018403517 46404.60896448925 46404.60896448925 49812.20147431205 45054.76638322004 861.4285714285714
42751.2854026705 44756.27294047995 44756.27294047995 48464.598387037615 43870.41730867917 891.8367346938776
40902.15676722143 43107.936916470666 43107.936916470666 47116.995299763184 42684.98081612601 922.2448979591836
39061.86319260802 41459.60089246136 41459.60089246136 45769.39221248874 41498.213355419226 952.6530612244898
37234.4135937504 39811.26486845206 39811.26486845206 44421.7891252143 40310.089328251335 983.0612244897959
35423.81688556868 38162.928844442766 38162.928844442766 43074.186037939864 39120.57262027798 1013.469387755102
33634.08198298295 36514.59282043346 36514.59282043346 41726.58295066543 37929.627011958204 1043.8775510204082
31869.217800913324 34866.25679642418 34866.25679642418 40378.979863390996 36737.247723525026 1074.2857142857142
30133.233254279887 33217.92077241487 33217.92077241487 39031.37677611655 35543.07040315767 1104.6938775510205
28430.137258002775 31569.58474840558 31569.58474840558 37683.77368884211 34348.21953916262 1135.1020408163265
26763.938727002078 29921.248724396293 29921.248724396293 36336.17060156769 33152.47593660352 1165.5102040816325
25138.64657619789 28272.91270038699 28272.91270038699 34988.567514293245 31955.449754768888 1195.9183673469388
23558.269720510332 26624.576676377692 26624.576676377692 33640.96442701881 30757.137506049206 1226.3265306122448
22026.817074859497 24976.24065236839 24976.24065236839 32293.361339744366 29557.552297461778 1256.734693877551
20548.297554165503 23327.9046283591 23327.9046283591 30945.758252469936 28356.674247518367 1287.142857142857
19126.72007334845 21679.56860434981 21679.56860434981 29598.1551651955 27154.521582796373 1317.5510204081631
17766.093547328426 20031.232580340507 20031.232580340507 28250.552077921056 25951.086442104282 1347.9591836734694
16470.426891025563 18382.89655633122 18382.89655633122 26902.948990646622 24746.380054696805 1378.3673469387754
15243.729019359944 16734.560532321913 16734.560532321913 25555.345903372177 23540.389620169455 1408.7755102040817
14090.008847251693 15086.224508312618 15086.224508312618 24207.74281609775 22332.909264998663 1439.1836734693877
13013.275289620902 13437.888484303316 13437.888484303316 22860.139728823306 20991.31987668577 1469.591836734694
12017.060000000001 11789.552460294026 11789.552460294026 21512.53664154887 19529.736020241802 1500.0
*bulk
50
167080.16903043602 166327.27851478904 166327.27851478904 166925.17179857157 161329.1976260204 10.0
167022.00302123395 166229.06553417383 166229.06553417383 166861.70185433334 160568.23717940992 40.40816326530612
166923.18240127823 166091.98525592432 166091.98525592432 166757.67566193565 159787.26494795387 70.81632653061224
166734.46646884392 165868.8792166944 165868.8792166944 166564.14167837973 158982.3465591511 101.22448979591837
166422.88739375878 165528.17433840272 165528.17433840272 166248.2979695695 158152.8442033698 131.6326530612245
165966.34062989173 165048.67592708656 165048.67592708656 165788.15239169923 157298.0672054487 162.0408163265306
165350.0334400092 164416.22104562906 164416.22104562906 165169.0142416526 156417.33002808294 192.44897959183675
164564.34809639407 163621.56540817366 163621.56540817366 164381.30977136226 155509.91211259502 222.85714285714286
163603.32613100568 162659.0036141447 162659.0036141447 163419.14477652637 154575.06360977978 253.26530612244898
162463.76225918642 161525.44266616862 161525.44266616862 162279.33202388324 153612.00641083292 283.6734693877551
161144.5083669151 160219.76541403754 160219.76541403754 160960.7536313793 152619.92359746093 314.0816326530612
159645.9931581705 158742.38262128388 158742.38262128388 159463.83904041722 151597.9955440168 344.48979591836735
157969.93031881226 157094.9129614642 157094.9129614642 157790.33033913438 150545.3351116624 374.8979591836735
156119.04717192298 155279.95043886921 155279.95043886921 155946.964146915 149461.04342379817 405.3061224489796
154096.88736209713 153300.89338934276 153300.89338934276 154051.7079119279 148344.18429219982 435.7142857142857
151907.73798614825 151161.8146501512 151161.8146501512 152156.4516769408 147193.7757313737 466.1224489795918
149556.4532191194 148867.36866751293 148867.36866751293 150261.1954419537 146008.8234720373 496.53061224489795
147048.4561678028 146422.71657923012 146422.71657923012 148365.9392069666 144784.497851194 526.9387755102041
144389.59364305134 143833.8881839532 143833.8881839532 146470.6829719795 143522.2879041431 557.3469387755102
141586.1746059055 141075.9476383602 141075.9476383602 144575.4267369924 142222.06280745898 587.7551020408163
138644.895438882 138246.3990634565 138246.3990634565 142680.1705020053 140883.47704199914 618.1632653061224
135572.80851352567 135416.78349716624 135416.78349716624 140784.9142670182 139505.82951922918 648.5714285714286
132377.3215335843 132587.167930876 132587.167930876 138889.6580320311 138087.73007579934 678.9795918367347
129066.17967442404 129757.55236458573 129757.55236458573 136994.401797044 136627.35000552182 709.3877551020408
125647.1830927642 126927.93679829547 126927.93679829547 135099.1455620569 135122.84052489497 739.795918367347
122120.95742652658 124098.32123200523 124098.32123200523 133203.8893270698 133572.4482132982 770.204081632653
118495.22996873567 121268.70566571498 121268.70566571498 131308.6330920827 131974.46801635512 800.6122448979592
114782.16272242638 118439.09009942472 118439.09009942472 129413.37685709559 130317.48674741456 831.0204081632653
110993.91769063349 115609.47453313446 115609.47453313446 127518.12062210849 128613.74523828093 861.4285714285714
107142.65687639196 112779.85896684419 112779.85896684419 125622.86438712139 126858.37201178455 891.8367346938776
103240.54228273667 109950.24340055394 109950.24340055394 123727.6081521343 125053.33204862526 922.2448979591836
99299.7359127024 107120.62783426368 107120.62783426368 121832.3519171472 123191.59687237728 952.6530612244898
95332.39976932408 104291.01226797343 104291.01226797343 119937.09568216008 121270.80637278962 983.0612244897959
91350.69585563663 101461.39670168317 101461.39670168317 118041.83944717298 119288.37448852012 1013.469387755102
87366.78617467484 98631.78113539291 98631.78113539291 116146.58321218588 117241.55113101918 1043.8775510204082
83392.83272947365 95802.16556910267 95802.16556910267 114251.3269771988 115127.57756957051 1074.2857142857142
79440.99752306787 92972.5500028124 92972.5500028124 112356.07074221167 112943.373509004 1104.6938775510205
75523.44255849243 90142.93443652215 90142.93443652215 110460.81450722458 110693.66024454596 1135.1020408163265
71652.32983878221 87313.3188702319 87313.3188702319 108565.5582722375 108373.82666623863 1165.5102040816325
67839.821366972 84483.70330394163 84483.70330394163 106670.30203725038 105977.71656575298 1195.9183673469388
64098.07914609677 81654.08773765137 81654.08773765137 104775.0458022633 103502.11905649788 1226.3265306122448
60439.26517919132 78824.4721713611 78824.4721713611 102879.78956727618 100943.65803132659 1256.734693877551
56875.54146929058 75994.85660507086 75994.85660507086 100984.5333322891 98298.72869483106 1287.142857142857
53419.070019429404 73165.2410387806 73165.2410387806 99089.277097302 95563.48252739306 1317.5510204081631
50082.01283264265 70335.62547249034 70335.62547249034 97194.02086231488 92733.82619489488 1347.9591836734694
46876.53191196522 67506.0099062001 67506.0099062001 95298.76462732778 89805.3935956934 1378.3673469387754
43814.78926043194 64676.39433990982 64676.39433990982 93403.50839234068 86773.58179881041 1408.7755102040817
40908.94688107774 61846.778773619575 61846.778773619575 91508.25215735358 83633.39682091586 1439.1836734693877
38171.166776937454 59017.1632073293 59017.1632073293 89612.99592236646 80228.73683636304 1469.591836734694
35613.47 56187.54764103906 56187.54764103906 87717.73968737938 76494.05005039876 1500.0
*density
50
7850.850343832831 7844.729494281448 7844.729494281448 7818.5693856442385 8104.547169846912 10.0
7841.8491865761125 7835.959532646685 7835.959532646685 7809.690593035413 8086.072204245589 40.40816326530612
7832.774109784008 7827.070962554853 7827.070962554853 7800.685231286901 8067.666953434124 70.81632653061224
7823.557149800963 7818.043991804692 7818.043991804692 7791.54824161496 8049.345027855363 101.22448979591837
7814.2145704923905 7808.879000907473 7808.879000907473 7782.2700041568405 8031.113915465797 131.6326530612245
7804.728759083784 7799.57639174965 7799.57639174965 7772.873830956044 8012.958081209615 162.0408163265306
7795.117198492476 7790.136581407125 7790.136581407125 7763.337063148582 7994.889393151682 192.44897959183675
7785.370880902554 7780.560005037945 7780.560005037945 7753.677535077353 7976.9044920497 222.85714285714286
7775.4964578752615 7770.847113940788 7770.847113940788 7743.883667355831 7958.98882501837 253.26530612244898
7765.488248159034 7760.998378292373 7760.998378292373 7733.954755332357 7941.156567809459 283.6734693877551
7755.3489474186135 7751.014283098966 7751.014283098966 7723.904735033734 7923.406077389607 314.0816326530612
7745.083656986722 7740.895334297302 7740.895334297302 7713.731866914608 7905.725860511268 344.48979591836735
7734.695091808758 7730.642051737064 7730.642051737064 7703.434782842765 7888.128969739328 374.8979591836735
7724.173488248343 7720.254974580828 7720.254974580828 7693.00544008693 7870.5941261252165 405.3061224489796
7713.5286530630265 7709.734661291449 7709.734661291449 7682.54930827742 7853.140957196885 435.7142857142857
7702.760590547612 7699.081678831798 7699.081678831798 7672.093176467911 7835.758703157721 466.1224489795918
7691.869283120052 7688.29662302938 7688.29662302938 7661.637044658401 7818.436827447529 496.53061224489795
7680.85499714206 7677.3801034617745 7677.3801034617745 7651.18091284889 7801.466150600149 526.9387755102041
7669.7157886198665 7666.336577997584 7666.336577997584 7640.72478103938 7784.623482523337 557.3469387755102
7658.467185558761 7654.8675051710725 7654.8675051710725 7630.26864922987 7767.829207265023 587.7551020408163
7647.091209045216 7643.29505619376 7643.29505619376 7619.812517420361 7751.034225104427 618.1632653061224
7635.592792871818 7631.722527728231 7631.722527728231 7609.35638561085 7734.202438913491 648.5714285714286
7623.989865472177 7620.149999262705 7620.149999262705 7598.900253801339 7717.345086111588 678.9795918367347
7612.26663970426 7608.577470797178 7608.577470797178 7588.44412199183 7700.499241972413 709.3877551020408
7600.410646452497 7597.00494233165 7597.00494233165 7577.98799018232 7683.692419706764 739.795918367347
7587.880043852467 7585.432413866123 7585.432413866123 7567.53185837281 7666.958080126387 770.204081632653
7574.47532831479 7573.859885400596 7573.859885400596 7557.075726563299 7650.265399404793 800.6122448979592
7560.305327066488 7562.2873569350695 7562.2873569350695 7546.619594753789 7633.82533337359 831.0204081632653
7545.478867334576 7550.714828469542 7550.714828469542 7536.16346294428 7617.390578826051 861.4285714285714
7530.104776346081 7539.142300004015 7539.142300004015 7525.707331134769 7600.994644000872 891.8367346938776
7514.291881328022 7527.569771538488 7527.569771538488 7515.251199325259 7584.547700258221 922.2448979591836
7498.149009507417 7515.99724307296 7515.99724307296 7504.795067515749 7568.153219878857 952.6530612244898
7481.78498811129 7504.424714607434 7504.424714607434 7494.338935706239 7551.829059837542 983.0612244897959
7465.308644366659 7492.852186141907 7492.852186141907 7483.8828038967295 7535.5676523867105 1013.469387755102
7448.828805500547 7481.2796576763785 7481.2796576763785 7473.426672087218 7519.3661318384975 1043.8775510204082
7432.454298739972 7469.707129210852 7469.707129210852 7462.970540277708 7503.2380298666985 1074.2857142857142
7416.293951311957 7458.134600745325 7458.134600745325 7452.514408468199 7487.190968133355 1104.6938775510205
7400.456590443522 7446.5620722797985 7446.5620722797985 7442.058276658689 7471.12602998419 1135.1020408163265
7385.051043361686 7434.989543814271 7434.989543814271 7431.602144849178 7455.050574522757 1165.5102040816325
7370.186137293471 7423.417015348743 7423.417015348743 7421.146013039668 7439.004981944833 1195.9183673469388
7355.970699465898 7411.844486883217 7411.844486883217 7410.689881230158 7422.97000824407 1226.3265306122448
7342.513557105987 7400.271958417689 7400.271958417689 7400.233749420649 7406.934001592272 1256.734693877551
7329.923537440758 7388.699429952162 7388.699429952162 7389.777617611137 7390.889522478242 1287.142857142857
7318.309467697233 7377.126901486635 7377.126901486635 7379.321485801627 7374.79773098066 1317.5510204081631
7307.7801751024335 7365.5543730211075 7365.5543730211075 7368.865353992118 7358.646819318155 1347.9591836734694
7298.444486883377 7353.981844555581 7353.981844555581 7358.409222182608 7342.394886167949 1378.3673469387754
7290.411230267085 7342.409316090054 7342.409316090054 7347.953090373097 7326.013931898957 1408.7755102040817
7283.789232480579 7330.8367876245275 7330.8367876245275 7337.496958563587 7309.465622282586 1439.1836734693877
7278.687320750882 7319.264259158999 7319.264259158999 7327.040826754077 7302.971939712318 1469.591836734694
7275.29 7307.691730693472 7307.691730693472 7316.584694944568 7301.671558357022 1500.0
*trip
50
0.00012169396180661413 0.00010834156900006467 0.00010834156900006467 0.00011967147970582163 10.0
0.0001308276309393335 0.00011605863829310682 0.00011605863829310682 0.00012871691788846371 40.40816326530612
0.00013835830183024135 0.00012229862040949896 0.00012229862040949896 0.00013619772104111864 70.81632653061224
0.00014418280903906688 0.00012697115724635992 0.00012697115724635992 0.00014201400571294868 101.22448979591837
0.00014852292048873151 0.00013028490493138985 0.00013028490493138985 0.0001463831090103756 131.6326530612245
0.00015157957336510344 0.0001324284009615416 0.0001324284009615416 0.00014950193446090196 162.0408163265306
0.00015352902341317956 0.0001335667968476634 0.0001335667968476634 0.00015154321558955507 192.44897959183675
0.00015452381516176412 0.00013384295680140548 0.00013384295680140548 0.00015265643446988703 222.85714285714286
0.00015469934489947647 0.00013338339029085825 0.00013338339029085825 0.00015297428774560342 253.26530612244898
0.0001541708404127452 0.00013229585807704246 0.00013229585807704246 0.0001526096914320991 283.6734693877551
0.000153037128835001 0.00013067283634351733 0.00013067283634351733 0.0001516594522995839 314.0816326530612
0.00015138649254177388 0.00012859677864308116 0.00012859677864308116 0.0001502101137668755 344.48979591836735
0.0001492944193282345 0.0001261382480261976 0.0001261382480261976 0.000148335608352453 374.8979591836735
0.0001468250135655967 0.00012335738248954006 0.00012335738248954006 0.0001460987323533861 405.3061224489796
0.0001440384578811782 0.00012031023253313786 0.00012031023253313786 0.00014355845515430713 435.7142857142857
0.00014098419784945368 0.00011704317883885815 0.00011704317883885815 0.00014076320074203632 466.1224489795918
0.00013770718703408393 0.00011359826845370164 0.00011359826845370164 0.00013775702291098573 496.53061224489795
0.00013424499119654598 0.00011001060246883044 0.00011001060246883044 0.00013457666806414856 526.9387755102041
0.0001306327791344178 0.00010633140899987978 0.00010633140899987978 0.0001312565718588019 557.3469387755102
0.00012690097579430123 0.00010290902011494134 0.00010290902011494134 0.0001278265260187003 587.7551020408163
0.0001230764953902649 9.945900072320097e-05 9.945900072320097e-05 0.0001243128843816233 618.1632653061224
0.00011918342730359384 9.60264325668387e-05 9.60264325668387e-05 0.00012073921058268151 648.5714285714286
0.00011524286856335067 9.26516432008992e-05 9.26516432008992e-05 0.00011712613942890598 678.9795918367347
0.00011127398728921699 8.93816520284075e-05 8.93816520284075e-05 0.0001134924193842099 709.3877551020408
0.00010729370757823617 8.627252321038661e-05 8.627252321038661e-05 0.00010985460401608983 739.795918367347
0.00010331709536235488 8.335376615439333e-05 8.335376615439333e-05 0.00010622745229263452 770.204081632653
9.935786145266176e-05 8.062564138925354e-05 8.062564138925354e-05 0.0001026242524349264 800.6122448979592
9.542808224349253e-05 7.818177138923741e-05 7.818177138923741e-05 9.905692764142804e-05 831.0204081632653
9.15386939510462e-05 7.609019189550315e-05 7.609019189550315e-05 9.553609440535695e-05 861.4285714285714
8.76994280543533e-05 7.441894517439145e-05 7.441894517439145e-05 9.207125925519252e-05 891.8367346938776
8.39192095909166e-05 7.323712267111916e-05 7.323712267111916e-05 8.867113344541491e-05 922.2448979591836
8.020588029629989e-05 7.261322624179875e-05 7.261322624179875e-05 8.534336768155899e-05 952.6530612244898
7.656657017179495e-05 7.260882676826001e-05 7.260882676826001e-05 8.209488477880136e-05 983.0612244897959
7.300771038617922e-05 7.324607881621135e-05 7.324607881621135e-05 7.8931990935379e-05 1013.469387755102
6.95349546501428e-05 7.421293077103773e-05 7.421293077103773e-05 7.586014335231949e-05 1043.8775510204082
6.615359816348354e-05 7.288913942617461e-05 7.288913942617461e-05 7.288450044814797e-05 1074.2857142857142
6.28681929457423e-05 7.00094621032011e-05 7.00094621032011e-05 7.00094983063768e-05 1104.6938775510205
5.9682931283809924e-05 6.723919644580817e-05 6.723919644580817e-05 6.723919666292418e-05 1135.1020408163265
5.660158939235721e-05 6.457725215153963e-05 6.457725215153963e-05 6.457725213211937e-05 1165.5102040816325
5.362748440519653e-05 6.202687919359666e-05 6.202687919359666e-05 6.202687919422025e-05 1195.9183673469388
5.076360337542096e-05 5.9590979068670406e-05 5.9590979068670406e-05 5.959097906865439e-05 1226.3265306122448
4.8012606777913695e-05 5.727211047539645e-05 5.727211047539645e-05 5.7272110475396826e-05 1256.734693877551
4.5376882649148554e-05 5.5072555477127224e-05 5.5072555477127224e-05 5.507255547712721e-05 1287.142857142857
4.285841861034269e-05 5.29942608805081e-05 5.29942608805081e-05 5.29942608805081e-05 1317.5510204081631
4.045973481158907e-05 5.103953107924611e-05 5.103953107924611e-05 5.103953107924611e-05 1347.9591836734694
3.8135220748531643e-05 4.916218497069243e-05 4.916218497069243e-05 4.916218497069244e-05 1378.3673469387754
3.5811644383136104e-05 4.728582581236638e-05 4.728582581236638e-05 4.7285825812366385e-05 1408.7755102040817
3.348806801774057e-05 4.540946665404036e-05 4.540946665404036e-05 4.5409466654040366e-05 1439.1836734693877
3.116449165234503e-05 4.3533107495714314e-05 4.3533107495714314e-05 4.353310749571433e-05 1469.591836734694
2.8840915286949505e-05 4.1656748337388295e-05 4.1656748337388295e-05 4.1656748337388295e-05 1500.0
