*density
100
0.0078464 0.00809543 20.0
0.007843464848484848 0.008089380707070706 34.94949494949495
0.007839030101010102 0.008080311212121211 49.898989898989896
0.007834565454545455 0.008071271515151515 64.84848484848484
0.007830061010101011 0.008062242020202021 79.79797979797979
0.007825536767676767 0.00805324202020202 94.74747474747475
0.007820972727272727 0.008044252424242424 109.6969696969697
0.007816368888888888 0.008035292121212121 124.64646464646465
0.007811745252525253 0.008026351616161616 139.59595959595958
0.007807081818181819 0.00801742181818182 154.54545454545456
0.007802388585858585 0.00800852101010101 169.4949494949495
0.007797656666666667 0.00799964 184.44444444444446
0.007792902727272727 0.007990778787878789 199.3939393939394
0.007788111414141413 0.007981928686868686 214.34343434343435
0.007783289090909091 0.007973107171717172 229.2929292929293
0.00777843696969697 0.007964295454545455 244.24242424242425
0.007773555050505051 0.007955513535353535 259.19191919191917
0.007768633333333333 0.007946743131313131 274.14141414141415
0.007763691818181818 0.007937990909090909 289.0909090909091
0.007758710505050505 0.007929260404040404 304.04040404040404
0.007753699393939394 0.007920547878787878 318.989898989899
0.007748658484848485 0.007911855151515152 333.93939393939394
0.0077435877777777785 0.007903174444444444 348.8888888888889
0.007738487272727273 0.007894521414141414 363.83838383838383
0.007733349393939394 0.007885880606060606 378.7878787878788
0.00772818686868687 0.007877257272727273 393.73737373737373
0.0077229969696969705 0.007868653737373738 408.6868686868687
0.0077177672727272734 0.007860062727272727 423.6363636363636
0.007712517777777777 0.00785149888888889 438.5858585858586
0.007707228484848485 0.00784294484848485 453.5353535353535
0.007701919393939394 0.007834406666666667 468.4848484848485
0.007696570505050505 0.007825892424242423 483.4343434343434
0.007691201818181819 0.00781738797979798 498.3838383838384
0.007685793333333334 0.007809036666666666 513.3333333333334
0.00768036505050505 0.0078007213131313135 528.2828282828283
0.007674900505050506 0.007792435757575758 543.2323232323232
0.007669409090909091 0.0077841636363636365 558.1818181818182
0.007663891414141414 0.007775901515151515 573.1313131313132
0.00765834393939394 0.007767649393939394 588.0808080808081
0.007652766666666666 0.0077593972727272725 603.030303030303
0.007647159595959596 0.007751135151515151 617.979797979798
0.007641522727272728 0.007742867171717171 632.929292929293
0.00763585606060606 0.0077345851515151515 647.8787878787879
0.007630169595959596 0.007726293131313131 662.8282828282828
0.007624448888888889 0.007718011111111111 677.7777777777778
0.007618697272727273 0.0077097190909090904 692.7272727272727
0.0076129267676767675 0.007701447070707071 707.6767676767677
0.00760712101010101 0.007693180303030303 722.6262626262626
0.007601187375075256 0.007684918181818183 737.5757575757576
0.007594729787276741 0.007676681111111111 752.5252525252525
0.007588272199478226 0.0076684538383838385 767.4747474747475
0.007581814611679711 0.007660241515151515 782.4242424242425
0.007575357023881196 0.007652039191919192 797.3737373737374
0.007568899436082682 0.0076439165656565665 812.3232323232323
0.0075624418482841665 0.007635863636363637 827.2727272727273
0.00755598426048565 0.0076277655555555554 842.2222222222223
0.007549526672687136 0.007619687272727273 857.1717171717172
0.007543069084888621 0.007611638787878788 872.1212121212121
0.0075366114970901055 0.007603577676767677 887.070707070707
0.007530153909291591 0.007595475050505051 902.0202020202021
0.007523696321493076 0.007587396363636364 916.969696969697
0.007517238733694561 0.007579323636363636 931.9191919191919
0.007510781145896046 0.007571264646464647 946.8686868686868
0.007504323558097531 0.007563225454545454 961.8181818181819
0.007497865970299017 0.007555202525252526 976.7676767676768
0.0074914083825005015 0.007547189595959596 991.7171717171717
0.007484950794701986 0.0075392 1006.6666666666667
0.007478493206903472 0.007531220202020202 1021.6161616161617
0.007472035619104957 0.007523257070707071 1036.5656565656566
0.0074655780313064414 0.007515313939393939 1051.5151515151515
0.007459120443507927 0.007507383737373738 1066.4646464646464
0.007452662855709412 0.007499473333333334 1081.4141414141413
0.0074462052679108975 0.00749158 1096.3636363636365
0.007439747680112382 0.007483709292929293 1111.3131313131314
0.007433290092313866 0.007475803333333334 1126.2626262626263
0.007426832504515352 0.0074678975757575755 1141.2121212121212
0.0074203749167168365 0.007459986666666666 1156.1616161616162
0.007413917328918321 0.007452093333333333 1171.111111111111
0.007407459741119807 0.0074442021212121215 1186.060606060606
0.007401002153321292 0.007436316666666666 1201.010101010101
0.007394544565522777 0.007428433333333334 1215.959595959596
0.007388086977724262 0.007420551818181818 1230.909090909091
0.007381629389925747 0.0074126683838383845 1245.858585858586
0.0073751718021272325 0.007404783333333334 1260.8080808080808
0.007368714214328717 0.0073969000000000005 1275.7575757575758
0.007362256626530202 0.007389005252525252 1290.7070707070707
0.007355799038731688 0.007381093333333333 1305.6565656565656
0.007349341450933172 0.007373178787878788 1320.6060606060607
0.007342883863134658 0.007365244444444445 1335.5555555555557
0.007336426275336143 0.007357290303030303 1350.5050505050506
0.007329968687537628 0.007349316363636364 1365.4545454545455
0.007323511099739113 0.007341303434343434 1380.4040404040404
0.007317053511940598 0.007333269090909091 1395.3535353535353
0.007310595924142083 0.007325185757575758 1410.3030303030303
0.007304138336343568 0.007317062626262626 1425.2525252525252
0.007297680748545052 0.0073088892929292935 1440.2020202020203
0.007291223160746538 0.007304454545454545 1455.1515151515152
0.007284765572948023 0.0073029331313131315 1470.1010101010102
0.0072783079851495075 0.00730216 1485.050505050505
0.00727529 0.00730216 1500.0
*conductivity
100
0.05762374 0.01714586 20.0
0.057364577373737374 0.01726664686868687 34.94949494949495
0.05695822131313131 0.017448123737373738 49.898989898989896
0.05653224363636363 0.017629600606060607 64.84848484848484
0.056087544545454546 0.017811077878787877 79.79797979797979
0.055625015151515154 0.017992554848484846 94.74747474747475
0.05514560454545455 0.018174041212121215 109.6969696969697
0.054650273434343435 0.018355518080808084 124.64646464646465
0.054140010505050504 0.018536994949494946 139.59595959595958
0.05361582545454545 0.018718471818181818 154.54545454545456
0.053078755959595963 0.018899949696969696 169.4949494949495
0.05252983333333333 0.019081435555555557 184.44444444444446
0.05197012484848485 0.019262912424242423 199.3939393939394
0.05140069828282828 0.01944438929292929 214.34343434343435
0.05082264383838384 0.019625866161616164 229.2929292929293
0.0502370390909091 0.019807344545454544 244.24242424242425
0.04964497444444444 0.019988821515151516 259.19191919191917
0.04904755727272728 0.02017030676767677 274.14141414141415
0.04844585636363636 0.020351783636363634 289.0909090909091
0.04784098242424243 0.020533260505050506 304.04040404040404
0.047234002525252526 0.020714737373737375 318.989898989899
0.046625997575757576 0.020896216363636363 333.93939393939394
0.04601801888888889 0.02107770111111111 348.8888888888889
0.04541112353535353 0.02125917797979798 363.83838383838383
0.044806345454545454 0.02144065484848485 378.7878787878788
0.04420469434343434 0.02162213171717172 393.73737373737373
0.04360716252525253 0.021803611212121213 408.6868686868687
0.043014720000000006 0.021985095454545456 423.6363636363636
0.04242831525252525 0.022166572323232322 438.5858585858586
0.04184886333333333 0.02234804919191919 453.5353535353535
0.041277263636363644 0.022529526060606063 468.4848484848485
0.0407143705050505 0.02271100606060606 483.4343434343434
0.04016101222222222 0.02289248303030303 498.3838383838384
0.039617983333333336 0.023074483333333333 513.3333333333334
0.03908604626262626 0.023256597979797983 528.2828282828283
0.038565920505050505 0.023438759090909093 543.2323232323232
0.03805830181818182 0.023620923636363637 558.1818181818182
0.03756382505050505 0.023803088181818182 573.1313131313132
0.03708310676767677 0.023985220404040407 588.0808080808081
0.03661671242424242 0.02416727090909091 603.030303030303
0.03616517060606061 0.024349248181818182 617.979797979798
0.0357289603030303 0.02453111606060606 632.929292929293
0.03530853515151515 0.024712884545454547 647.8787878787879
0.03490428525252526 0.024894563636363637 662.8282828282828
0.03451656555555555 0.02507617888888889 677.7777777777778
0.034145707272727276 0.025257734545454547 692.7272727272727
0.03379197202020202 0.02543925595959596 707.6767676767677
0.033455596565656574 0.025620752828282828 722.6262626262626
0.03319660483443708 0.0258022396969697 737.5757575757576
0.03323377799116997 0.02598372656565657 752.5252525252525
0.03327095114790287 0.026165213434343432 767.4747474747475
0.03330812430463576 0.026346690303030305 782.4242424242425
0.033345297461368655 0.026528167171717174 797.3737373737374
0.03338247061810155 0.02670918404040404 812.3232323232323
0.03341964377483443 0.02688998909090909 827.2727272727273
0.033456816931567324 0.027071252222222224 842.2222222222223
0.03349399008830022 0.027252475555555555 857.1717171717172
0.033531163245033115 0.02743365484848485 872.1212121212121
0.03356833640176601 0.027614924242424246 887.070707070707
0.0336055095584989 0.027796357171717172 902.0202020202021
0.033642682715231784 0.027977784242424242 916.969696969697
0.033679855871964676 0.028159201313131314 931.9191919191919
0.03371702902869757 0.02834060090909091 946.8686868686868
0.03375420218543047 0.028521978181818185 961.8181818181819
0.03379137534216336 0.028703331919191923 976.7676767676768
0.03382854849889625 0.02888464585858586 991.7171717171717
0.033865721655629136 0.029065930000000004 1006.6666666666667
0.03390289481236203 0.02924716787878788 1021.6161616161617
0.03394006796909493 0.029428342626262628 1036.5656565656566
0.03397724112582782 0.029609461515151515 1051.5151515151515
0.03401441428256071 0.02979050393939394 1066.4646464646464
0.034051587439293596 0.029971532222222222 1081.4141414141413
0.03408876059602649 0.030152727272727272 1096.3636363636365
0.03412593375275938 0.030333892525252527 1111.3131313131314
0.03416310690949227 0.03051526575757576 1126.2626262626263
0.03420028006622517 0.0306967103030303 1141.2121212121212
0.03423745322295806 0.030878147373737376 1156.1616161616162
0.03427462637969095 0.031059584444444444 1171.111111111111
0.03431179953642384 0.031241011515151514 1186.060606060606
0.03434897269315673 0.03142243858585859 1201.010101010101
0.03438614584988963 0.03160385373737374 1215.959595959596
0.03442331900662252 0.03178526090909091 1230.909090909091
0.034460492163355415 0.031966658080808084 1245.858585858586
0.0344976653200883 0.03214804363636364 1260.8080808080808
0.03453483847682119 0.03232941090909091 1275.7575757575758
0.034572011633554084 0.032510766767676766 1290.7070707070707
0.034609184790286976 0.032692104141414144 1305.6565656565656
0.034646357947019875 0.03287342030303031 1320.6060606060607
0.03468353110375277 0.03305471666666667 1335.5555555555557
0.03472070426048565 0.033235983232323234 1350.5050505050506
0.034757877417218544 0.033417220000000004 1365.4545454545455
0.034795050573951436 0.03359841696969697 1380.4040404040404
0.03483222373068433 0.03377958343434344 1395.3535353535353
0.03486939688741723 0.03396071030303031 1410.3030303030303
0.03490657004415012 0.03414177858585858 1425.2525252525252
0.034943743200883004 0.034322805656565654 1440.2020202020203
0.034980916357615896 0.034525795454545455 1455.1515151515152
0.03501808951434879 0.03473154505050505 1470.1010101010102
0.03505526267108168 0.03494159 1485.050505050505
0.03523849 0.03494159 1500.0
*specificheat
100
0.4459 0.45248 20.0
0.4502978787878788 0.45588303030303035 34.94949494949495
0.4566775757575758 0.46067848484848484 49.898989898989896
0.4628481818181818 0.46514575757575755 64.84848484848484
0.4688691919191919 0.4693246464646465 79.79797979797979
0.474790505050505 0.47327484848484846 94.74747474747475
0.4806612121212121 0.4770254545454546 109.6969696969697
0.4865114141414142 0.4806065656565657 124.64646464646465
0.4923716161616162 0.4840386868686869 139.59595959595958
0.49827 0.4873509090909091 154.54545454545456
0.5042369696969697 0.49054393939393937 169.4949494949495
0.5102833333333333 0.49364555555555556 184.44444444444446
0.516429090909091 0.49665878787878787 199.3939393939394
0.5227029292929293 0.4996013131313131 214.34343434343435
0.5291145454545455 0.5024756565656565 229.2929292929293
0.5356736363636364 0.5052890909090909 244.24242424242425
0.5424031313131312 0.5080513131313131 259.19191919191917
0.5493181818181818 0.5107737373737373 274.14141414141415
0.5564236363636363 0.5134481818181819 289.0909090909091
0.5637440404040405 0.5160830303030303 304.04040404040404
0.5712928282828283 0.5186942424242424 318.989898989899
0.57908 0.5212675757575758 333.93939393939394
0.5871333333333334 0.5238111111111111 348.8888888888889
0.5954548484848485 0.5263348484848486 363.83838383838383
0.6040696969696969 0.5288387878787878 378.7878787878788
0.6129948484848484 0.531320404040404 393.73737373737373
0.6222627272727274 0.5337846464646465 408.6868686868687
0.6318781818181818 0.5362363636363636 423.6363636363636
0.6418883838383839 0.5386709090909091 438.5858585858586
0.6523201010101011 0.5410856565656565 453.5353535353535
0.6631957575757577 0.5434945454545455 468.4848484848485
0.6745550505050505 0.5458894949494949 483.4343434343434
0.6864576767676768 0.5482746464646464 498.3838383838384
0.6989366666666667 0.55064 513.3333333333334
0.7120579797979798 0.5529986868686869 528.2828282828283
0.7258777777777777 0.555340707070707 543.2323232323232
0.7404881818181819 0.5576763636363636 558.1818181818182
0.7559717171717172 0.5600084848484849 573.1313131313132
0.7724236363636363 0.5623406060606061 588.0808080808081
0.7899666666666666 0.5646627272727273 603.030303030303
0.8087477777777778 0.5669788888888889 617.979797979798
0.828919292929293 0.5692969696969697 632.929292929293
0.8506669696969696 0.5716133333333333 647.8787878787879
0.8742227272727272 0.5739255555555556 662.8282828282828
0.8998311111111112 0.5762377777777778 677.7777777777778
0.9277936363636364 0.5785554545454545 692.7272727272727
0.9584596969696969 0.5808622222222222 707.6767676767677
0.9922394949494949 0.5831744444444444 722.6262626262626
1.02284 0.5854866666666667 737.5757575757576
1.02284 0.5877838383838384 752.5252525252525
1.02284 0.5900761616161616 767.4747474747475
1.02284 0.5923584848484849 782.4242424242425
1.02284 0.5945575757575757 797.3737373737374
1.02284 0.59523 812.3232323232323
1.02284 0.59523 827.2727272727273
1.02284 0.59523 842.2222222222223
1.02284 0.59523 857.1717171717172
1.02284 0.59523 872.1212121212121
1.02284 0.59523 887.070707070707
1.02284 0.59523 902.0202020202021
1.02284 0.59523 916.969696969697
1.02284 0.59523 931.9191919191919
1.02284 0.59523 946.8686868686868
1.02284 0.59523 961.8181818181819
1.02284 0.59523 976.7676767676768
1.02284 0.59523 991.7171717171717
1.02284 0.59523 1006.6666666666667
1.02284 0.59523 1021.6161616161617
1.02284 0.59523 1036.5656565656566
1.02284 0.59523 1051.5151515151515
1.02284 0.59523 1066.4646464646464
1.02284 0.59523 1081.4141414141413
1.02284 0.59523 1096.3636363636365
1.02284 0.59523 1111.3131313131314
1.02284 0.59523 1126.2626262626263
1.02284 0.59523 1141.2121212121212
1.02284 0.59523 1156.1616161616162
1.02284 0.59523 1171.111111111111
1.02284 0.59523 1186.060606060606
1.02284 0.59523 1201.010101010101
1.02284 0.59523 1215.959595959596
1.02284 0.59523 1230.909090909091
1.02284 0.59523 1245.858585858586
1.02284 0.59523 1260.8080808080808
1.02284 0.59523 1275.7575757575758
1.02284 0.59523 1290.7070707070707
1.02284 0.59523 1305.6565656565656
1.02284 0.59523 1320.6060606060607
1.02284 0.59523 1335.5555555555557
1.02284 0.59523 1350.5050505050506
1.02284 0.59523 1365.4545454545455
1.02284 0.59523 1380.4040404040404
1.02284 0.59523 1395.3535353535353
1.02284 0.59523 1410.3030303030303
1.02284 0.59523 1425.2525252525252
1.02284 0.59523 1440.2020202020203
1.02284 0.59523 1455.1515151515152
1.02284 0.59523 1470.1010101010102
1.02284 0.59523 1485.050505050505
1.02284 0.59523 1500.0
