*Heading
** Job name: mechanical Model name: mechanical
** Generated by: Abaqus/CAE 2022
*Preprint, echo=NO, model=NO, history=NO, contact=NO
**
** PARTS
**
*Part, name=Part-1
*Node
      1,           5.,          10.
      2,           5.,          15.
      3,           0.,          15.
      4,           0.,          10.
      5,          50.,          10.
      6,          50.,          15.
      7,           5.,          11.
      8,           5.,          12.
      9,           5.,          13.
     10,           5.,          14.
     11,           4.,          15.
     12,           3.,          15.
     13,           2.,          15.
     14,           1.,          15.
     15,           0.,          14.
     16,           0.,          13.
     17,           0.,          12.
     18,           0.,          11.
     19,           1.,          10.
     20,           2.,          10.
     21,           3.,          10.
     22,           4.,          10.
     23,           6.,          10.
     24,           7.,          10.
     25,           8.,          10.
     26,           9.,          10.
     27,          10.,          10.
     28,          11.,          10.
     29,          12.,          10.
     30,          13.,          10.
     31,          14.,          10.
     32,          15.,          10.
     33,          16.,          10.
     34,          17.,          10.
     35,          18.,          10.
     36,          19.,          10.
     37,          20.,          10.
     38,          21.,          10.
     39,          22.,          10.
     40,          23.,          10.
     41,          24.,          10.
     42,          25.,          10.
     43,          26.,          10.
     44,          27.,          10.
     45,          28.,          10.
     46,          29.,          10.
     47,          30.,          10.
     48,          31.,          10.
     49,          32.,          10.
     50,          33.,          10.
     51,          34.,          10.
     52,          35.,          10.
     53,          36.,          10.
     54,          37.,          10.
     55,          38.,          10.
     56,          39.,          10.
     57,          40.,          10.
     58,          41.,          10.
     59,          42.,          10.
     60,          43.,          10.
     61,          44.,          10.
     62,          45.,          10.
     63,          46.,          10.
     64,          47.,          10.
     65,          48.,          10.
     66,          49.,          10.
     67,          50.,          11.
     68,          50.,          12.
     69,          50.,          13.
     70,          50.,          14.
     71,          49.,          15.
     72,          48.,          15.
     73,          47.,          15.
     74,          46.,          15.
     75,          45.,          15.
     76,          44.,          15.
     77,          43.,          15.
     78,          42.,          15.
     79,          41.,          15.
     80,          40.,          15.
     81,          39.,          15.
     82,          38.,          15.
     83,          37.,          15.
     84,          36.,          15.
     85,          35.,          15.
     86,          34.,          15.
     87,          33.,          15.
     88,          32.,          15.
     89,          31.,          15.
     90,          30.,          15.
     91,          29.,          15.
     92,          28.,          15.
     93,          27.,          15.
     94,          26.,          15.
     95,          25.,          15.
     96,          24.,          15.
     97,          23.,          15.
     98,          22.,          15.
     99,          21.,          15.
    100,          20.,          15.
    101,          19.,          15.
    102,          18.,          15.
    103,          17.,          15.
    104,          16.,          15.
    105,          15.,          15.
    106,          14.,          15.
    107,          13.,          15.
    108,          12.,          15.
    109,          11.,          15.
    110,          10.,          15.
    111,           9.,          15.
    112,           8.,          15.
    113,           7.,          15.
    114,           6.,          15.
    115,           4.,          11.
    116,           4.,          12.
    117,           4.,          13.
    118,           4.,          14.
    119,           3.,          11.
    120,           3.,          12.
    121,           3.,          13.
    122,           3.,          14.
    123,           2.,          11.
    124,           2.,          12.
    125,           2.,          13.
    126,           2.,          14.
    127,           1.,          11.
    128,           1.,          12.
    129,           1.,          13.
    130,           1.,          14.
    131,           6.,          14.
    132,           6.,          13.
    133,           6.,          12.
    134,           6.,          11.
    135,           7.,          14.
    136,           7.,          13.
    137,           7.,          12.
    138,           7.,          11.
    139,           8.,          14.
    140,           8.,          13.
    141,           8.,          12.
    142,           8.,          11.
    143,           9.,          14.
    144,           9.,          13.
    145,           9.,          12.
    146,           9.,          11.
    147,          10.,          14.
    148,          10.,          13.
    149,          10.,          12.
    150,          10.,          11.
    151,          11.,          14.
    152,          11.,          13.
    153,          11.,          12.
    154,          11.,          11.
    155,          12.,          14.
    156,          12.,          13.
    157,          12.,          12.
    158,          12.,          11.
    159,          13.,          14.
    160,          13.,          13.
    161,          13.,          12.
    162,          13.,          11.
    163,          14.,          14.
    164,          14.,          13.
    165,          14.,          12.
    166,          14.,          11.
    167,          15.,          14.
    168,          15.,          13.
    169,          15.,          12.
    170,          15.,          11.
    171,          16.,          14.
    172,          16.,          13.
    173,          16.,          12.
    174,          16.,          11.
    175,          17.,          14.
    176,          17.,          13.
    177,          17.,          12.
    178,          17.,          11.
    179,          18.,          14.
    180,          18.,          13.
    181,          18.,          12.
    182,          18.,          11.
    183,          19.,          14.
    184,          19.,          13.
    185,          19.,          12.
    186,          19.,          11.
    187,          20.,          14.
    188,          20.,          13.
    189,          20.,          12.
    190,          20.,          11.
    191,          21.,          14.
    192,          21.,          13.
    193,          21.,          12.
    194,          21.,          11.
    195,          22.,          14.
    196,          22.,          13.
    197,          22.,          12.
    198,          22.,          11.
    199,          23.,          14.
    200,          23.,          13.
    201,          23.,          12.
    202,          23.,          11.
    203,          24.,          14.
    204,          24.,          13.
    205,          24.,          12.
    206,          24.,          11.
    207,          25.,          14.
    208,          25.,          13.
    209,          25.,          12.
    210,          25.,          11.
    211,          26.,          14.
    212,          26.,          13.
    213,          26.,          12.
    214,          26.,          11.
    215,          27.,          14.
    216,          27.,          13.
    217,          27.,          12.
    218,          27.,          11.
    219,          28.,          14.
    220,          28.,          13.
    221,          28.,          12.
    222,          28.,          11.
    223,          29.,          14.
    224,          29.,          13.
    225,          29.,          12.
    226,          29.,          11.
    227,          30.,          14.
    228,          30.,          13.
    229,          30.,          12.
    230,          30.,          11.
    231,          31.,          14.
    232,          31.,          13.
    233,          31.,          12.
    234,          31.,          11.
    235,          32.,          14.
    236,          32.,          13.
    237,          32.,          12.
    238,          32.,          11.
    239,          33.,          14.
    240,          33.,          13.
    241,          33.,          12.
    242,          33.,          11.
    243,          34.,          14.
    244,          34.,          13.
    245,          34.,          12.
    246,          34.,          11.
    247,          35.,          14.
    248,          35.,          13.
    249,          35.,          12.
    250,          35.,          11.
    251,          36.,          14.
    252,          36.,          13.
    253,          36.,          12.
    254,          36.,          11.
    255,          37.,          14.
    256,          37.,          13.
    257,          37.,          12.
    258,          37.,          11.
    259,          38.,          14.
    260,          38.,          13.
    261,          38.,          12.
    262,          38.,          11.
    263,          39.,          14.
    264,          39.,          13.
    265,          39.,          12.
    266,          39.,          11.
    267,          40.,          14.
    268,          40.,          13.
    269,          40.,          12.
    270,          40.,          11.
    271,          41.,          14.
    272,          41.,          13.
    273,          41.,          12.
    274,          41.,          11.
    275,          42.,          14.
    276,          42.,          13.
    277,          42.,          12.
    278,          42.,          11.
    279,          43.,          14.
    280,          43.,          13.
    281,          43.,          12.
    282,          43.,          11.
    283,          44.,          14.
    284,          44.,          13.
    285,          44.,          12.
    286,          44.,          11.
    287,          45.,          14.
    288,          45.,          13.
    289,          45.,          12.
    290,          45.,          11.
    291,          46.,          14.
    292,          46.,          13.
    293,          46.,          12.
    294,          46.,          11.
    295,          47.,          14.
    296,          47.,          13.
    297,          47.,          12.
    298,          47.,          11.
    299,          48.,          14.
    300,          48.,          13.
    301,          48.,          12.
    302,          48.,          11.
    303,          49.,          14.
    304,          49.,          13.
    305,          49.,          12.
    306,          49.,          11.
    307,           5.,         10.5
    308,          4.5,          11.
    309,           4.,         10.5
    310,          4.5,          10.
    311,           5.,         11.5
    312,          4.5,          12.
    313,           4.,         11.5
    314,           5.,         12.5
    315,          4.5,          13.
    316,           4.,         12.5
    317,           5.,         13.5
    318,          4.5,          14.
    319,           4.,         13.5
    320,           5.,         14.5
    321,          4.5,          15.
    322,           4.,         14.5
    323,          3.5,          11.
    324,           3.,         10.5
    325,          3.5,          10.
    326,          3.5,          12.
    327,           3.,         11.5
    328,          3.5,          13.
    329,           3.,         12.5
    330,          3.5,          14.
    331,           3.,         13.5
    332,          3.5,          15.
    333,           3.,         14.5
    334,          2.5,          11.
    335,           2.,         10.5
    336,          2.5,          10.
    337,          2.5,          12.
    338,           2.,         11.5
    339,          2.5,          13.
    340,           2.,         12.5
    341,          2.5,          14.
    342,           2.,         13.5
    343,          2.5,          15.
    344,           2.,         14.5
    345,          1.5,          11.
    346,           1.,         10.5
    347,          1.5,          10.
    348,          1.5,          12.
    349,           1.,         11.5
    350,          1.5,          13.
    351,           1.,         12.5
    352,          1.5,          14.
    353,           1.,         13.5
    354,          1.5,          15.
    355,           1.,         14.5
    356,          0.5,          11.
    357,           0.,         10.5
    358,          0.5,          10.
    359,          0.5,          12.
    360,           0.,         11.5
    361,          0.5,          13.
    362,           0.,         12.5
    363,          0.5,          14.
    364,           0.,         13.5
    365,          0.5,          15.
    366,           0.,         14.5
    367,          5.5,          14.
    368,           6.,         14.5
    369,          5.5,          15.
    370,          5.5,          13.
    371,           6.,         13.5
    372,          5.5,          12.
    373,           6.,         12.5
    374,          5.5,          11.
    375,           6.,         11.5
    376,          5.5,          10.
    377,           6.,         10.5
    378,          6.5,          14.
    379,           7.,         14.5
    380,          6.5,          15.
    381,          6.5,          13.
    382,           7.,         13.5
    383,          6.5,          12.
    384,           7.,         12.5
    385,          6.5,          11.
    386,           7.,         11.5
    387,          6.5,          10.
    388,           7.,         10.5
    389,          7.5,          14.
    390,           8.,         14.5
    391,          7.5,          15.
    392,          7.5,          13.
    393,           8.,         13.5
    394,          7.5,          12.
    395,           8.,         12.5
    396,          7.5,          11.
    397,           8.,         11.5
    398,          7.5,          10.
    399,           8.,         10.5
    400,          8.5,          14.
    401,           9.,         14.5
    402,          8.5,          15.
    403,          8.5,          13.
    404,           9.,         13.5
    405,          8.5,          12.
    406,           9.,         12.5
    407,          8.5,          11.
    408,           9.,         11.5
    409,          8.5,          10.
    410,           9.,         10.5
    411,          9.5,          14.
    412,          10.,         14.5
    413,          9.5,          15.
    414,          9.5,          13.
    415,          10.,         13.5
    416,          9.5,          12.
    417,          10.,         12.5
    418,          9.5,          11.
    419,          10.,         11.5
    420,          9.5,          10.
    421,          10.,         10.5
    422,         10.5,          14.
    423,          11.,         14.5
    424,         10.5,          15.
    425,         10.5,          13.
    426,          11.,         13.5
    427,         10.5,          12.
    428,          11.,         12.5
    429,         10.5,          11.
    430,          11.,         11.5
    431,         10.5,          10.
    432,          11.,         10.5
    433,         11.5,          14.
    434,          12.,         14.5
    435,         11.5,          15.
    436,         11.5,          13.
    437,          12.,         13.5
    438,         11.5,          12.
    439,          12.,         12.5
    440,         11.5,          11.
    441,          12.,         11.5
    442,         11.5,          10.
    443,          12.,         10.5
    444,         12.5,          14.
    445,          13.,         14.5
    446,         12.5,          15.
    447,         12.5,          13.
    448,          13.,         13.5
    449,         12.5,          12.
    450,          13.,         12.5
    451,         12.5,          11.
    452,          13.,         11.5
    453,         12.5,          10.
    454,          13.,         10.5
    455,         13.5,          14.
    456,          14.,         14.5
    457,         13.5,          15.
    458,         13.5,          13.
    459,          14.,         13.5
    460,         13.5,          12.
    461,          14.,         12.5
    462,         13.5,          11.
    463,          14.,         11.5
    464,         13.5,          10.
    465,          14.,         10.5
    466,         14.5,          14.
    467,          15.,         14.5
    468,         14.5,          15.
    469,         14.5,          13.
    470,          15.,         13.5
    471,         14.5,          12.
    472,          15.,         12.5
    473,         14.5,          11.
    474,          15.,         11.5
    475,         14.5,          10.
    476,          15.,         10.5
    477,         15.5,          14.
    478,          16.,         14.5
    479,         15.5,          15.
    480,         15.5,          13.
    481,          16.,         13.5
    482,         15.5,          12.
    483,          16.,         12.5
    484,         15.5,          11.
    485,          16.,         11.5
    486,         15.5,          10.
    487,          16.,         10.5
    488,         16.5,          14.
    489,          17.,         14.5
    490,         16.5,          15.
    491,         16.5,          13.
    492,          17.,         13.5
    493,         16.5,          12.
    494,          17.,         12.5
    495,         16.5,          11.
    496,          17.,         11.5
    497,         16.5,          10.
    498,          17.,         10.5
    499,         17.5,          14.
    500,          18.,         14.5
    501,         17.5,          15.
    502,         17.5,          13.
    503,          18.,         13.5
    504,         17.5,          12.
    505,          18.,         12.5
    506,         17.5,          11.
    507,          18.,         11.5
    508,         17.5,          10.
    509,          18.,         10.5
    510,         18.5,          14.
    511,          19.,         14.5
    512,         18.5,          15.
    513,         18.5,          13.
    514,          19.,         13.5
    515,         18.5,          12.
    516,          19.,         12.5
    517,         18.5,          11.
    518,          19.,         11.5
    519,         18.5,          10.
    520,          19.,         10.5
    521,         19.5,          14.
    522,          20.,         14.5
    523,         19.5,          15.
    524,         19.5,          13.
    525,          20.,         13.5
    526,         19.5,          12.
    527,          20.,         12.5
    528,         19.5,          11.
    529,          20.,         11.5
    530,         19.5,          10.
    531,          20.,         10.5
    532,         20.5,          14.
    533,          21.,         14.5
    534,         20.5,          15.
    535,         20.5,          13.
    536,          21.,         13.5
    537,         20.5,          12.
    538,          21.,         12.5
    539,         20.5,          11.
    540,          21.,         11.5
    541,         20.5,          10.
    542,          21.,         10.5
    543,         21.5,          14.
    544,          22.,         14.5
    545,         21.5,          15.
    546,         21.5,          13.
    547,          22.,         13.5
    548,         21.5,          12.
    549,          22.,         12.5
    550,         21.5,          11.
    551,          22.,         11.5
    552,         21.5,          10.
    553,          22.,         10.5
    554,         22.5,          14.
    555,          23.,         14.5
    556,         22.5,          15.
    557,         22.5,          13.
    558,          23.,         13.5
    559,         22.5,          12.
    560,          23.,         12.5
    561,         22.5,          11.
    562,          23.,         11.5
    563,         22.5,          10.
    564,          23.,         10.5
    565,         23.5,          14.
    566,          24.,         14.5
    567,         23.5,          15.
    568,         23.5,          13.
    569,          24.,         13.5
    570,         23.5,          12.
    571,          24.,         12.5
    572,         23.5,          11.
    573,          24.,         11.5
    574,         23.5,          10.
    575,          24.,         10.5
    576,         24.5,          14.
    577,          25.,         14.5
    578,         24.5,          15.
    579,         24.5,          13.
    580,          25.,         13.5
    581,         24.5,          12.
    582,          25.,         12.5
    583,         24.5,          11.
    584,          25.,         11.5
    585,         24.5,          10.
    586,          25.,         10.5
    587,         25.5,          14.
    588,          26.,         14.5
    589,         25.5,          15.
    590,         25.5,          13.
    591,          26.,         13.5
    592,         25.5,          12.
    593,          26.,         12.5
    594,         25.5,          11.
    595,          26.,         11.5
    596,         25.5,          10.
    597,          26.,         10.5
    598,         26.5,          14.
    599,          27.,         14.5
    600,         26.5,          15.
    601,         26.5,          13.
    602,          27.,         13.5
    603,         26.5,          12.
    604,          27.,         12.5
    605,         26.5,          11.
    606,          27.,         11.5
    607,         26.5,          10.
    608,          27.,         10.5
    609,         27.5,          14.
    610,          28.,         14.5
    611,         27.5,          15.
    612,         27.5,          13.
    613,          28.,         13.5
    614,         27.5,          12.
    615,          28.,         12.5
    616,         27.5,          11.
    617,          28.,         11.5
    618,         27.5,          10.
    619,          28.,         10.5
    620,         28.5,          14.
    621,          29.,         14.5
    622,         28.5,          15.
    623,         28.5,          13.
    624,          29.,         13.5
    625,         28.5,          12.
    626,          29.,         12.5
    627,         28.5,          11.
    628,          29.,         11.5
    629,         28.5,          10.
    630,          29.,         10.5
    631,         29.5,          14.
    632,          30.,         14.5
    633,         29.5,          15.
    634,         29.5,          13.
    635,          30.,         13.5
    636,         29.5,          12.
    637,          30.,         12.5
    638,         29.5,          11.
    639,          30.,         11.5
    640,         29.5,          10.
    641,          30.,         10.5
    642,         30.5,          14.
    643,          31.,         14.5
    644,         30.5,          15.
    645,         30.5,          13.
    646,          31.,         13.5
    647,         30.5,          12.
    648,          31.,         12.5
    649,         30.5,          11.
    650,          31.,         11.5
    651,         30.5,          10.
    652,          31.,         10.5
    653,         31.5,          14.
    654,          32.,         14.5
    655,         31.5,          15.
    656,         31.5,          13.
    657,          32.,         13.5
    658,         31.5,          12.
    659,          32.,         12.5
    660,         31.5,          11.
    661,          32.,         11.5
    662,         31.5,          10.
    663,          32.,         10.5
    664,         32.5,          14.
    665,          33.,         14.5
    666,         32.5,          15.
    667,         32.5,          13.
    668,          33.,         13.5
    669,         32.5,          12.
    670,          33.,         12.5
    671,         32.5,          11.
    672,          33.,         11.5
    673,         32.5,          10.
    674,          33.,         10.5
    675,         33.5,          14.
    676,          34.,         14.5
    677,         33.5,          15.
    678,         33.5,          13.
    679,          34.,         13.5
    680,         33.5,          12.
    681,          34.,         12.5
    682,         33.5,          11.
    683,          34.,         11.5
    684,         33.5,          10.
    685,          34.,         10.5
    686,         34.5,          14.
    687,          35.,         14.5
    688,         34.5,          15.
    689,         34.5,          13.
    690,          35.,         13.5
    691,         34.5,          12.
    692,          35.,         12.5
    693,         34.5,          11.
    694,          35.,         11.5
    695,         34.5,          10.
    696,          35.,         10.5
    697,         35.5,          14.
    698,          36.,         14.5
    699,         35.5,          15.
    700,         35.5,          13.
    701,          36.,         13.5
    702,         35.5,          12.
    703,          36.,         12.5
    704,         35.5,          11.
    705,          36.,         11.5
    706,         35.5,          10.
    707,          36.,         10.5
    708,         36.5,          14.
    709,          37.,         14.5
    710,         36.5,          15.
    711,         36.5,          13.
    712,          37.,         13.5
    713,         36.5,          12.
    714,          37.,         12.5
    715,         36.5,          11.
    716,          37.,         11.5
    717,         36.5,          10.
    718,          37.,         10.5
    719,         37.5,          14.
    720,          38.,         14.5
    721,         37.5,          15.
    722,         37.5,          13.
    723,          38.,         13.5
    724,         37.5,          12.
    725,          38.,         12.5
    726,         37.5,          11.
    727,          38.,         11.5
    728,         37.5,          10.
    729,          38.,         10.5
    730,         38.5,          14.
    731,          39.,         14.5
    732,         38.5,          15.
    733,         38.5,          13.
    734,          39.,         13.5
    735,         38.5,          12.
    736,          39.,         12.5
    737,         38.5,          11.
    738,          39.,         11.5
    739,         38.5,          10.
    740,          39.,         10.5
    741,         39.5,          14.
    742,          40.,         14.5
    743,         39.5,          15.
    744,         39.5,          13.
    745,          40.,         13.5
    746,         39.5,          12.
    747,          40.,         12.5
    748,         39.5,          11.
    749,          40.,         11.5
    750,         39.5,          10.
    751,          40.,         10.5
    752,         40.5,          14.
    753,          41.,         14.5
    754,         40.5,          15.
    755,         40.5,          13.
    756,          41.,         13.5
    757,         40.5,          12.
    758,          41.,         12.5
    759,         40.5,          11.
    760,          41.,         11.5
    761,         40.5,          10.
    762,          41.,         10.5
    763,         41.5,          14.
    764,          42.,         14.5
    765,         41.5,          15.
    766,         41.5,          13.
    767,          42.,         13.5
    768,         41.5,          12.
    769,          42.,         12.5
    770,         41.5,          11.
    771,          42.,         11.5
    772,         41.5,          10.
    773,          42.,         10.5
    774,         42.5,          14.
    775,          43.,         14.5
    776,         42.5,          15.
    777,         42.5,          13.
    778,          43.,         13.5
    779,         42.5,          12.
    780,          43.,         12.5
    781,         42.5,          11.
    782,          43.,         11.5
    783,         42.5,          10.
    784,          43.,         10.5
    785,         43.5,          14.
    786,          44.,         14.5
    787,         43.5,          15.
    788,         43.5,          13.
    789,          44.,         13.5
    790,         43.5,          12.
    791,          44.,         12.5
    792,         43.5,          11.
    793,          44.,         11.5
    794,         43.5,          10.
    795,          44.,         10.5
    796,         44.5,          14.
    797,          45.,         14.5
    798,         44.5,          15.
    799,         44.5,          13.
    800,          45.,         13.5
    801,         44.5,          12.
    802,          45.,         12.5
    803,         44.5,          11.
    804,          45.,         11.5
    805,         44.5,          10.
    806,          45.,         10.5
    807,         45.5,          14.
    808,          46.,         14.5
    809,         45.5,          15.
    810,         45.5,          13.
    811,          46.,         13.5
    812,         45.5,          12.
    813,          46.,         12.5
    814,         45.5,          11.
    815,          46.,         11.5
    816,         45.5,          10.
    817,          46.,         10.5
    818,         46.5,          14.
    819,          47.,         14.5
    820,         46.5,          15.
    821,         46.5,          13.
    822,          47.,         13.5
    823,         46.5,          12.
    824,          47.,         12.5
    825,         46.5,          11.
    826,          47.,         11.5
    827,         46.5,          10.
    828,          47.,         10.5
    829,         47.5,          14.
    830,          48.,         14.5
    831,         47.5,          15.
    832,         47.5,          13.
    833,          48.,         13.5
    834,         47.5,          12.
    835,          48.,         12.5
    836,         47.5,          11.
    837,          48.,         11.5
    838,         47.5,          10.
    839,          48.,         10.5
    840,         48.5,          14.
    841,          49.,         14.5
    842,         48.5,          15.
    843,         48.5,          13.
    844,          49.,         13.5
    845,         48.5,          12.
    846,          49.,         12.5
    847,         48.5,          11.
    848,          49.,         11.5
    849,         48.5,          10.
    850,          49.,         10.5
    851,         49.5,          14.
    852,          50.,         14.5
    853,         49.5,          15.
    854,         49.5,          13.
    855,          50.,         13.5
    856,         49.5,          12.
    857,          50.,         12.5
    858,         49.5,          11.
    859,          50.,         11.5
    860,         49.5,          10.
    861,          50.,         10.5
*Element, type=CPE8R
 1,   1,   7, 115,  22, 307, 308, 309, 310
 2,   7,   8, 116, 115, 311, 312, 313, 308
 3,   8,   9, 117, 116, 314, 315, 316, 312
 4,   9,  10, 118, 117, 317, 318, 319, 315
 5,  10,   2,  11, 118, 320, 321, 322, 318
 6,  22, 115, 119,  21, 309, 323, 324, 325
 7, 115, 116, 120, 119, 313, 326, 327, 323
 8, 116, 117, 121, 120, 316, 328, 329, 326
 9, 117, 118, 122, 121, 319, 330, 331, 328
10, 118,  11,  12, 122, 322, 332, 333, 330
11,  21, 119, 123,  20, 324, 334, 335, 336
12, 119, 120, 124, 123, 327, 337, 338, 334
13, 120, 121, 125, 124, 329, 339, 340, 337
14, 121, 122, 126, 125, 331, 341, 342, 339
15, 122,  12,  13, 126, 333, 343, 344, 341
16,  20, 123, 127,  19, 335, 345, 346, 347
17, 123, 124, 128, 127, 338, 348, 349, 345
18, 124, 125, 129, 128, 340, 350, 351, 348
19, 125, 126, 130, 129, 342, 352, 353, 350
20, 126,  13,  14, 130, 344, 354, 355, 352
21,  19, 127,  18,   4, 346, 356, 357, 358
22, 127, 128,  17,  18, 349, 359, 360, 356
23, 128, 129,  16,  17, 351, 361, 362, 359
24, 129, 130,  15,  16, 353, 363, 364, 361
25, 130,  14,   3,  15, 355, 365, 366, 363
 26,   2,  10, 131, 114, 320, 367, 368, 369
 27,  10,   9, 132, 131, 317, 370, 371, 367
 28,   9,   8, 133, 132, 314, 372, 373, 370
 29,   8,   7, 134, 133, 311, 374, 375, 372
 30,   7,   1,  23, 134, 307, 376, 377, 374
 31, 114, 131, 135, 113, 368, 378, 379, 380
 32, 131, 132, 136, 135, 371, 381, 382, 378
 33, 132, 133, 137, 136, 373, 383, 384, 381
 34, 133, 134, 138, 137, 375, 385, 386, 383
 35, 134,  23,  24, 138, 377, 387, 388, 385
 36, 113, 135, 139, 112, 379, 389, 390, 391
 37, 135, 136, 140, 139, 382, 392, 393, 389
 38, 136, 137, 141, 140, 384, 394, 395, 392
 39, 137, 138, 142, 141, 386, 396, 397, 394
 40, 138,  24,  25, 142, 388, 398, 399, 396
 41, 112, 139, 143, 111, 390, 400, 401, 402
 42, 139, 140, 144, 143, 393, 403, 404, 400
 43, 140, 141, 145, 144, 395, 405, 406, 403
 44, 141, 142, 146, 145, 397, 407, 408, 405
 45, 142,  25,  26, 146, 399, 409, 410, 407
 46, 111, 143, 147, 110, 401, 411, 412, 413
 47, 143, 144, 148, 147, 404, 414, 415, 411
 48, 144, 145, 149, 148, 406, 416, 417, 414
 49, 145, 146, 150, 149, 408, 418, 419, 416
 50, 146,  26,  27, 150, 410, 420, 421, 418
 51, 110, 147, 151, 109, 412, 422, 423, 424
 52, 147, 148, 152, 151, 415, 425, 426, 422
 53, 148, 149, 153, 152, 417, 427, 428, 425
 54, 149, 150, 154, 153, 419, 429, 430, 427
 55, 150,  27,  28, 154, 421, 431, 432, 429
 56, 109, 151, 155, 108, 423, 433, 434, 435
 57, 151, 152, 156, 155, 426, 436, 437, 433
 58, 152, 153, 157, 156, 428, 438, 439, 436
 59, 153, 154, 158, 157, 430, 440, 441, 438
 60, 154,  28,  29, 158, 432, 442, 443, 440
 61, 108, 155, 159, 107, 434, 444, 445, 446
 62, 155, 156, 160, 159, 437, 447, 448, 444
 63, 156, 157, 161, 160, 439, 449, 450, 447
 64, 157, 158, 162, 161, 441, 451, 452, 449
 65, 158,  29,  30, 162, 443, 453, 454, 451
 66, 107, 159, 163, 106, 445, 455, 456, 457
 67, 159, 160, 164, 163, 448, 458, 459, 455
 68, 160, 161, 165, 164, 450, 460, 461, 458
 69, 161, 162, 166, 165, 452, 462, 463, 460
 70, 162,  30,  31, 166, 454, 464, 465, 462
 71, 106, 163, 167, 105, 456, 466, 467, 468
 72, 163, 164, 168, 167, 459, 469, 470, 466
 73, 164, 165, 169, 168, 461, 471, 472, 469
 74, 165, 166, 170, 169, 463, 473, 474, 471
 75, 166,  31,  32, 170, 465, 475, 476, 473
 76, 105, 167, 171, 104, 467, 477, 478, 479
 77, 167, 168, 172, 171, 470, 480, 481, 477
 78, 168, 169, 173, 172, 472, 482, 483, 480
 79, 169, 170, 174, 173, 474, 484, 485, 482
 80, 170,  32,  33, 174, 476, 486, 487, 484
 81, 104, 171, 175, 103, 478, 488, 489, 490
 82, 171, 172, 176, 175, 481, 491, 492, 488
 83, 172, 173, 177, 176, 483, 493, 494, 491
 84, 173, 174, 178, 177, 485, 495, 496, 493
 85, 174,  33,  34, 178, 487, 497, 498, 495
 86, 103, 175, 179, 102, 489, 499, 500, 501
 87, 175, 176, 180, 179, 492, 502, 503, 499
 88, 176, 177, 181, 180, 494, 504, 505, 502
 89, 177, 178, 182, 181, 496, 506, 507, 504
 90, 178,  34,  35, 182, 498, 508, 509, 506
 91, 102, 179, 183, 101, 500, 510, 511, 512
 92, 179, 180, 184, 183, 503, 513, 514, 510
 93, 180, 181, 185, 184, 505, 515, 516, 513
 94, 181, 182, 186, 185, 507, 517, 518, 515
 95, 182,  35,  36, 186, 509, 519, 520, 517
 96, 101, 183, 187, 100, 511, 521, 522, 523
 97, 183, 184, 188, 187, 514, 524, 525, 521
 98, 184, 185, 189, 188, 516, 526, 527, 524
 99, 185, 186, 190, 189, 518, 528, 529, 526
100, 186,  36,  37, 190, 520, 530, 531, 528
101, 100, 187, 191,  99, 522, 532, 533, 534
102, 187, 188, 192, 191, 525, 535, 536, 532
103, 188, 189, 193, 192, 527, 537, 538, 535
104, 189, 190, 194, 193, 529, 539, 540, 537
105, 190,  37,  38, 194, 531, 541, 542, 539
106,  99, 191, 195,  98, 533, 543, 544, 545
107, 191, 192, 196, 195, 536, 546, 547, 543
108, 192, 193, 197, 196, 538, 548, 549, 546
109, 193, 194, 198, 197, 540, 550, 551, 548
110, 194,  38,  39, 198, 542, 552, 553, 550
111,  98, 195, 199,  97, 544, 554, 555, 556
112, 195, 196, 200, 199, 547, 557, 558, 554
113, 196, 197, 201, 200, 549, 559, 560, 557
114, 197, 198, 202, 201, 551, 561, 562, 559
115, 198,  39,  40, 202, 553, 563, 564, 561
116,  97, 199, 203,  96, 555, 565, 566, 567
117, 199, 200, 204, 203, 558, 568, 569, 565
118, 200, 201, 205, 204, 560, 570, 571, 568
119, 201, 202, 206, 205, 562, 572, 573, 570
120, 202,  40,  41, 206, 564, 574, 575, 572
121,  96, 203, 207,  95, 566, 576, 577, 578
122, 203, 204, 208, 207, 569, 579, 580, 576
123, 204, 205, 209, 208, 571, 581, 582, 579
124, 205, 206, 210, 209, 573, 583, 584, 581
125, 206,  41,  42, 210, 575, 585, 586, 583
126,  95, 207, 211,  94, 577, 587, 588, 589
127, 207, 208, 212, 211, 580, 590, 591, 587
128, 208, 209, 213, 212, 582, 592, 593, 590
129, 209, 210, 214, 213, 584, 594, 595, 592
130, 210,  42,  43, 214, 586, 596, 597, 594
131,  94, 211, 215,  93, 588, 598, 599, 600
132, 211, 212, 216, 215, 591, 601, 602, 598
133, 212, 213, 217, 216, 593, 603, 604, 601
134, 213, 214, 218, 217, 595, 605, 606, 603
135, 214,  43,  44, 218, 597, 607, 608, 605
136,  93, 215, 219,  92, 599, 609, 610, 611
137, 215, 216, 220, 219, 602, 612, 613, 609
138, 216, 217, 221, 220, 604, 614, 615, 612
139, 217, 218, 222, 221, 606, 616, 617, 614
140, 218,  44,  45, 222, 608, 618, 619, 616
141,  92, 219, 223,  91, 610, 620, 621, 622
142, 219, 220, 224, 223, 613, 623, 624, 620
143, 220, 221, 225, 224, 615, 625, 626, 623
144, 221, 222, 226, 225, 617, 627, 628, 625
145, 222,  45,  46, 226, 619, 629, 630, 627
146,  91, 223, 227,  90, 621, 631, 632, 633
147, 223, 224, 228, 227, 624, 634, 635, 631
148, 224, 225, 229, 228, 626, 636, 637, 634
149, 225, 226, 230, 229, 628, 638, 639, 636
150, 226,  46,  47, 230, 630, 640, 641, 638
151,  90, 227, 231,  89, 632, 642, 643, 644
152, 227, 228, 232, 231, 635, 645, 646, 642
153, 228, 229, 233, 232, 637, 647, 648, 645
154, 229, 230, 234, 233, 639, 649, 650, 647
155, 230,  47,  48, 234, 641, 651, 652, 649
156,  89, 231, 235,  88, 643, 653, 654, 655
157, 231, 232, 236, 235, 646, 656, 657, 653
158, 232, 233, 237, 236, 648, 658, 659, 656
159, 233, 234, 238, 237, 650, 660, 661, 658
160, 234,  48,  49, 238, 652, 662, 663, 660
161,  88, 235, 239,  87, 654, 664, 665, 666
162, 235, 236, 240, 239, 657, 667, 668, 664
163, 236, 237, 241, 240, 659, 669, 670, 667
164, 237, 238, 242, 241, 661, 671, 672, 669
165, 238,  49,  50, 242, 663, 673, 674, 671
166,  87, 239, 243,  86, 665, 675, 676, 677
167, 239, 240, 244, 243, 668, 678, 679, 675
168, 240, 241, 245, 244, 670, 680, 681, 678
169, 241, 242, 246, 245, 672, 682, 683, 680
170, 242,  50,  51, 246, 674, 684, 685, 682
171,  86, 243, 247,  85, 676, 686, 687, 688
172, 243, 244, 248, 247, 679, 689, 690, 686
173, 244, 245, 249, 248, 681, 691, 692, 689
174, 245, 246, 250, 249, 683, 693, 694, 691
175, 246,  51,  52, 250, 685, 695, 696, 693
176,  85, 247, 251,  84, 687, 697, 698, 699
177, 247, 248, 252, 251, 690, 700, 701, 697
178, 248, 249, 253, 252, 692, 702, 703, 700
179, 249, 250, 254, 253, 694, 704, 705, 702
180, 250,  52,  53, 254, 696, 706, 707, 704
181,  84, 251, 255,  83, 698, 708, 709, 710
182, 251, 252, 256, 255, 701, 711, 712, 708
183, 252, 253, 257, 256, 703, 713, 714, 711
184, 253, 254, 258, 257, 705, 715, 716, 713
185, 254,  53,  54, 258, 707, 717, 718, 715
186,  83, 255, 259,  82, 709, 719, 720, 721
187, 255, 256, 260, 259, 712, 722, 723, 719
188, 256, 257, 261, 260, 714, 724, 725, 722
189, 257, 258, 262, 261, 716, 726, 727, 724
190, 258,  54,  55, 262, 718, 728, 729, 726
191,  82, 259, 263,  81, 720, 730, 731, 732
192, 259, 260, 264, 263, 723, 733, 734, 730
193, 260, 261, 265, 264, 725, 735, 736, 733
194, 261, 262, 266, 265, 727, 737, 738, 735
195, 262,  55,  56, 266, 729, 739, 740, 737
196,  81, 263, 267,  80, 731, 741, 742, 743
197, 263, 264, 268, 267, 734, 744, 745, 741
198, 264, 265, 269, 268, 736, 746, 747, 744
199, 265, 266, 270, 269, 738, 748, 749, 746
200, 266,  56,  57, 270, 740, 750, 751, 748
201,  80, 267, 271,  79, 742, 752, 753, 754
202, 267, 268, 272, 271, 745, 755, 756, 752
203, 268, 269, 273, 272, 747, 757, 758, 755
204, 269, 270, 274, 273, 749, 759, 760, 757
205, 270,  57,  58, 274, 751, 761, 762, 759
206,  79, 271, 275,  78, 753, 763, 764, 765
207, 271, 272, 276, 275, 756, 766, 767, 763
208, 272, 273, 277, 276, 758, 768, 769, 766
209, 273, 274, 278, 277, 760, 770, 771, 768
210, 274,  58,  59, 278, 762, 772, 773, 770
211,  78, 275, 279,  77, 764, 774, 775, 776
212, 275, 276, 280, 279, 767, 777, 778, 774
213, 276, 277, 281, 280, 769, 779, 780, 777
214, 277, 278, 282, 281, 771, 781, 782, 779
215, 278,  59,  60, 282, 773, 783, 784, 781
216,  77, 279, 283,  76, 775, 785, 786, 787
217, 279, 280, 284, 283, 778, 788, 789, 785
218, 280, 281, 285, 284, 780, 790, 791, 788
219, 281, 282, 286, 285, 782, 792, 793, 790
220, 282,  60,  61, 286, 784, 794, 795, 792
221,  76, 283, 287,  75, 786, 796, 797, 798
222, 283, 284, 288, 287, 789, 799, 800, 796
223, 284, 285, 289, 288, 791, 801, 802, 799
224, 285, 286, 290, 289, 793, 803, 804, 801
225, 286,  61,  62, 290, 795, 805, 806, 803
226,  75, 287, 291,  74, 797, 807, 808, 809
227, 287, 288, 292, 291, 800, 810, 811, 807
228, 288, 289, 293, 292, 802, 812, 813, 810
229, 289, 290, 294, 293, 804, 814, 815, 812
230, 290,  62,  63, 294, 806, 816, 817, 814
231,  74, 291, 295,  73, 808, 818, 819, 820
232, 291, 292, 296, 295, 811, 821, 822, 818
233, 292, 293, 297, 296, 813, 823, 824, 821
234, 293, 294, 298, 297, 815, 825, 826, 823
235, 294,  63,  64, 298, 817, 827, 828, 825
236,  73, 295, 299,  72, 819, 829, 830, 831
237, 295, 296, 300, 299, 822, 832, 833, 829
238, 296, 297, 301, 300, 824, 834, 835, 832
239, 297, 298, 302, 301, 826, 836, 837, 834
240, 298,  64,  65, 302, 828, 838, 839, 836
241,  72, 299, 303,  71, 830, 840, 841, 842
242, 299, 300, 304, 303, 833, 843, 844, 840
243, 300, 301, 305, 304, 835, 845, 846, 843
244, 301, 302, 306, 305, 837, 847, 848, 845
245, 302,  65,  66, 306, 839, 849, 850, 847
246,  71, 303,  70,   6, 841, 851, 852, 853
247, 303, 304,  69,  70, 844, 854, 855, 851
248, 304, 305,  68,  69, 846, 856, 857, 854
249, 305, 306,  67,  68, 848, 858, 859, 856
250, 306,  66,   5,  67, 850, 860, 861, 858
*Nset, nset=Base
   1,   2,   5,   6,   7,   8,   9,  10,  23,  24,  25,  26,  27,  28,  29,  30
  31,  32,  33,  34,  35,  36,  37,  38,  39,  40,  41,  42,  43,  44,  45,  46
  47,  48,  49,  50,  51,  52,  53,  54,  55,  56,  57,  58,  59,  60,  61,  62
  63,  64,  65,  66,  67,  68,  69,  70,  71,  72,  73,  74,  75,  76,  77,  78
  79,  80,  81,  82,  83,  84,  85,  86,  87,  88,  89,  90,  91,  92,  93,  94
  95,  96,  97,  98,  99, 100, 101, 102, 103, 104, 105, 106, 107, 108, 109, 110
 111, 112, 113, 114, 131, 132, 133, 134, 135, 136, 137, 138, 139, 140, 141, 142
 143, 144, 145, 146, 147, 148, 149, 150, 151, 152, 153, 154, 155, 156, 157, 158
 159, 160, 161, 162, 163, 164, 165, 166, 167, 168, 169, 170, 171, 172, 173, 174
 175, 176, 177, 178, 179, 180, 181, 182, 183, 184, 185, 186, 187, 188, 189, 190
 191, 192, 193, 194, 195, 196, 197, 198, 199, 200, 201, 202, 203, 204, 205, 206
 207, 208, 209, 210, 211, 212, 213, 214, 215, 216, 217, 218, 219, 220, 221, 222
 223, 224, 225, 226, 227, 228, 229, 230, 231, 232, 233, 234, 235, 236, 237, 238
 239, 240, 241, 242, 243, 244, 245, 246, 247, 248, 249, 250, 251, 252, 253, 254
 255, 256, 257, 258, 259, 260, 261, 262, 263, 264, 265, 266, 267, 268, 269, 270
 271, 272, 273, 274, 275, 276, 277, 278, 279, 280, 281, 282, 283, 284, 285, 286
 287, 288, 289, 290, 291, 292, 293, 294, 295, 296, 297, 298, 299, 300, 301, 302
 303, 304, 305, 306, 307, 311, 314, 317, 320, 367, 368, 369, 370, 371, 372, 373
 374, 375, 376, 377, 378, 379, 380, 381, 382, 383, 384, 385, 386, 387, 388, 389
 390, 391, 392, 393, 394, 395, 396, 397, 398, 399, 400, 401, 402, 403, 404, 405
 406, 407, 408, 409, 410, 411, 412, 413, 414, 415, 416, 417, 418, 419, 420, 421
 422, 423, 424, 425, 426, 427, 428, 429, 430, 431, 432, 433, 434, 435, 436, 437
 438, 439, 440, 441, 442, 443, 444, 445, 446, 447, 448, 449, 450, 451, 452, 453
 454, 455, 456, 457, 458, 459, 460, 461, 462, 463, 464, 465, 466, 467, 468, 469
 470, 471, 472, 473, 474, 475, 476, 477, 478, 479, 480, 481, 482, 483, 484, 485
 486, 487, 488, 489, 490, 491, 492, 493, 494, 495, 496, 497, 498, 499, 500, 501
 502, 503, 504, 505, 506, 507, 508, 509, 510, 511, 512, 513, 514, 515, 516, 517
 518, 519, 520, 521, 522, 523, 524, 525, 526, 527, 528, 529, 530, 531, 532, 533
 534, 535, 536, 537, 538, 539, 540, 541, 542, 543, 544, 545, 546, 547, 548, 549
 550, 551, 552, 553, 554, 555, 556, 557, 558, 559, 560, 561, 562, 563, 564, 565
 566, 567, 568, 569, 570, 571, 572, 573, 574, 575, 576, 577, 578, 579, 580, 581
 582, 583, 584, 585, 586, 587, 588, 589, 590, 591, 592, 593, 594, 595, 596, 597
 598, 599, 600, 601, 602, 603, 604, 605, 606, 607, 608, 609, 610, 611, 612, 613
 614, 615, 616, 617, 618, 619, 620, 621, 622, 623, 624, 625, 626, 627, 628, 629
 630, 631, 632, 633, 634, 635, 636, 637, 638, 639, 640, 641, 642, 643, 644, 645
 646, 647, 648, 649, 650, 651, 652, 653, 654, 655, 656, 657, 658, 659, 660, 661
 662, 663, 664, 665, 666, 667, 668, 669, 670, 671, 672, 673, 674, 675, 676, 677
 678, 679, 680, 681, 682, 683, 684, 685, 686, 687, 688, 689, 690, 691, 692, 693
 694, 695, 696, 697, 698, 699, 700, 701, 702, 703, 704, 705, 706, 707, 708, 709
 710, 711, 712, 713, 714, 715, 716, 717, 718, 719, 720, 721, 722, 723, 724, 725
 726, 727, 728, 729, 730, 731, 732, 733, 734, 735, 736, 737, 738, 739, 740, 741
 742, 743, 744, 745, 746, 747, 748, 749, 750, 751, 752, 753, 754, 755, 756, 757
 758, 759, 760, 761, 762, 763, 764, 765, 766, 767, 768, 769, 770, 771, 772, 773
 774, 775, 776, 777, 778, 779, 780, 781, 782, 783, 784, 785, 786, 787, 788, 789
 790, 791, 792, 793, 794, 795, 796, 797, 798, 799, 800, 801, 802, 803, 804, 805
 806, 807, 808, 809, 810, 811, 812, 813, 814, 815, 816, 817, 818, 819, 820, 821
 822, 823, 824, 825, 826, 827, 828, 829, 830, 831, 832, 833, 834, 835, 836, 837
 838, 839, 840, 841, 842, 843, 844, 845, 846, 847, 848, 849, 850, 851, 852, 853
 854, 855, 856, 857, 858, 859, 860, 861
*Elset, elset=Base, generate
  26,  250,    1
*Nset, nset=Weld
   1,   2,   3,   4,   7,   8,   9,  10,  11,  12,  13,  14,  15,  16,  17,  18
  19,  20,  21,  22, 115, 116, 117, 118, 119, 120, 121, 122, 123, 124, 125, 126
 127, 128, 129, 130, 307, 308, 309, 310, 311, 312, 313, 314, 315, 316, 317, 318
 319, 320, 321, 322, 323, 324, 325, 326, 327, 328, 329, 330, 331, 332, 333, 334
 335, 336, 337, 338, 339, 340, 341, 342, 343, 344, 345, 346, 347, 348, 349, 350
 351, 352, 353, 354, 355, 356, 357, 358, 359, 360, 361, 362, 363, 364, 365, 366
*Elset, elset=Weld, generate
  1,  25,   1
** Section: Weld
*Solid Section, elset=Weld, material=Weld
,
** Section: Base
*Solid Section, elset=Base, material=Base
,
*End Part
**  
**
** ASSEMBLY
**
*Assembly, name=Assembly
**  
*Instance, name=Part-1-1, part=Part-1
*End Instance
**  
*Nset, nset=All, instance=Part-1-1, generate
   1,  861,    1
*Elset, elset=All, instance=Part-1-1, generate
   1,  250,    1
*Nset, nset=Fusionline, instance=Part-1-1
   1,   2,   7,   8,   9,  10, 307, 311, 314, 317, 320
*Elset, elset=Fusionline, instance=Part-1-1
  1,  2,  3,  4,  5, 26, 27, 28, 29, 30
*Nset, nset=Set-3, instance=Part-1-1
   3,   4,   5,   6,  15,  16,  17,  18,  67,  68,  69,  70, 357, 360, 362, 364
 366, 852, 855, 857, 859, 861
*Elset, elset=Set-3, instance=Part-1-1
  21,  22,  23,  24,  25, 246, 247, 248, 249, 250
*Nset, nset=Set-4, instance=Part-1-1
 5,
*Elset, elset=_Surf-1_S2, internal, instance=Part-1-1, generate
   5,  250,    5
*Elset, elset=_Surf-1_S3, internal, instance=Part-1-1
  21,  22,  23,  24,  25, 246, 247, 248, 249, 250
*Elset, elset=_Surf-1_S4, internal, instance=Part-1-1, generate
   1,  246,    5
*Surface, type=ELEMENT, name=Surf-1
_Surf-1_S2, S2
_Surf-1_S3, S3
_Surf-1_S4, S4
*End Assembly
** 
** MATERIALS
** 
*Material, name=Base
*Depvar
     30,
1, THE, THE
2, PEEQ, PEEQ
3, PPEEQ, PPEEQ
4, TPEEQ, TPEEQ
5, PE11, PE11
6, PE22, PE22
7, PE33, PE33
8, PE12, PE12
9, PPE11, PE11
10, PPE22, PE22
11, PPE33, PE33
12, PPE12, PE12
13, TPE11, TPE11
14, TPE22, TPE22
15, TPE33, TPE33
16, TPE12, TPE12
17, EE11, EE11
18, EE22, EE22
19, EE33, EE33
20, EE12, EE12
21, SPD, SPD
22, Y, Y
23, Y0, Y0
24, K, K
25, G, G
26, RHO, RHO
27, KTP, KTP
28, RHOR, RHOR
29, SYF, SYF
30, PEEQT, PEEQT
*Expansion, user
*User Material, constants=1
0.,
*Material, name=Weld
*Depvar
     30,
1, THE, THE
2, PEEQ, PEEQ
3, PPEEQ, PPEEQ
4, TPEEQ, TPEEQ
5, PE11, PE11
6, PE22, PE22
7, PE33, PE33
8, PE12, PE12
9, PPE11, PE11
10, PPE22, PE22
11, PPE33, PE33
12, PPE12, PE12
13, TPE11, TPE11
14, TPE22, TPE22
15, TPE33, TPE33
16, TPE12, TPE12
17, EE11, EE11
18, EE22, EE22
19, EE33, EE33
20, EE12, EE12
21, SPD, SPD
22, Y, Y
23, Y0, Y0
24, K, K
25, G, G
26, RHO, RHO
27, KTP, KTP
28, RHOR, RHOR
29, SYF, SYF
30, PEEQT, PEEQT
*Expansion, user
*User Material, constants=1
0.,
** 
** PHYSICAL CONSTANTS
** 
*Physical Constants, absolute zero=-273., stefan boltzmann=5.67e-14
** 
** BOUNDARY CONDITIONS
** 
** Name: FixX Type: Displacement/Rotation
*Boundary
Set-3, 1, 1
** Name: FixY Type: Displacement/Rotation
*Boundary
Set-4, 2, 2
** 
** PREDEFINED FIELDS
** 
** Name: frac_a   Type: Field
*Initial Conditions, type=FIELD, variable=5, file=thermal_a.odb, step=1, inc=0, output variable=NT
** Name: frac_b   Type: Field
*Initial Conditions, type=FIELD, variable=3, file=thermal_b.odb, step=1, inc=0, output variable=NT
** Name: frac_f   Type: Field
*Initial Conditions, type=FIELD, variable=1, file=thermal_f.odb, step=1, inc=0, output variable=NT
** Name: frac_m   Type: Field
*Initial Conditions, type=FIELD, variable=4, file=thermal_m.odb, step=1, inc=0, output variable=NT
** Name: frac_p   Type: Field
*Initial Conditions, type=FIELD, variable=2, file=thermal_p.odb, step=1, inc=0, output variable=NT
** Name: temperature   Type: Temperature
*Initial Conditions, type=TEMPERATURE, file=thermal.odb, step=1, inc=0
** ----------------------------------------------------------------
** 
** STEP: Step-1 Initialization
** 
*Step, name="Step-1 Initialization", nlgeom=NO
*Static
1., 1., 1e-05, 1.
** 
** INTERACTIONS
** 
** Interaction: Weld
*Model Change, remove
Part-1-1.Weld, 
** 
** OUTPUT REQUESTS
** 
*Restart, write, frequency=0
** 
** FIELD OUTPUT: F-Output-1
** 
*Output, field
*Node Output
U, 
*Element Output, directions=YES
E, S, SDV
** 
** HISTORY OUTPUT: H-Output-1
** 
*Output, history, variable=PRESELECT
*End Step
** ----------------------------------------------------------------
** 
** STEP: Step-2 Heating
** 
*Step, name="Step-2 Heating", nlgeom=NO, inc=1000
*Static
0.01, 1., 1e-05, 0.01
** 
** PREDEFINED FIELDS
** 
** Name: frac_a   Type: Field
*Field, variable=5, file=thermal_a.odb, output variable=NT, bstep=2
** Name: frac_b   Type: Field
*Field, variable=3, file=thermal_b.odb, output variable=NT, bstep=2
** Name: frac_f   Type: Field
*Field, variable=1, file=thermal_f.odb, output variable=NT, bstep=2
** Name: frac_m   Type: Field
*Field, variable=4, file=thermal_m.odb, output variable=NT, bstep=2
** Name: frac_p   Type: Field
*Field, variable=2, file=thermal_p.odb, output variable=NT, bstep=2
** Name: temperature   Type: Temperature
*Temperature, file=thermal.odb, bstep=2
** 
** OUTPUT REQUESTS
** 
*Restart, write, frequency=0
** 
** FIELD OUTPUT: F-Output-1
** 
*Output, field
*Node Output
U, 
*Element Output, directions=YES
E, S, SDV
** 
** HISTORY OUTPUT: H-Output-1
** 
*Output, history, variable=PRESELECT
*End Step
** ----------------------------------------------------------------
** 
** STEP: Step-3 Insert
** 
*Step, name="Step-3 Insert", nlgeom=NO
*Static
1., 1., 1e-05, 1.
** 
** PREDEFINED FIELDS
** 
** Name: frac_a   Type: Field
*Field, variable=5, file=thermal_a.odb, output variable=NT, bstep=3
** Name: frac_b   Type: Field
*Field, variable=3, file=thermal_b.odb, output variable=NT, bstep=3
** Name: frac_f   Type: Field
*Field, variable=1, file=thermal_f.odb, output variable=NT, bstep=3
** Name: frac_m   Type: Field
*Field, variable=4, file=thermal_m.odb, output variable=NT, bstep=3
** Name: frac_p   Type: Field
*Field, variable=2, file=thermal_p.odb, output variable=NT, bstep=3
** Name: temperature   Type: Temperature
*Temperature, file=thermal.odb, bstep=3
** 
** INTERACTIONS
** 
** Interaction: Weld
*Model Change, add
Part-1-1.Weld, 
** 
** OUTPUT REQUESTS
** 
*Restart, write, frequency=0
** 
** FIELD OUTPUT: F-Output-1
** 
*Output, field
*Node Output
U, 
*Element Output, directions=YES
E, S, SDV
** 
** HISTORY OUTPUT: H-Output-1
** 
*Output, history, variable=PRESELECT
*End Step
** ----------------------------------------------------------------
** 
** STEP: Step-4 Cooldown
** 
*Step, name="Step-4 Cooldown", nlgeom=NO, inc=1000
*Static
0.01, 1., 1e-05, 0.01
** 
** PREDEFINED FIELDS
** 
** Name: frac_a   Type: Field
*Field, variable=5, file=thermal_a.odb, output variable=NT, bstep=4
** Name: frac_b   Type: Field
*Field, variable=3, file=thermal_b.odb, output variable=NT, bstep=4
** Name: frac_f   Type: Field
*Field, variable=1, file=thermal_f.odb, output variable=NT, bstep=4
** Name: frac_m   Type: Field
*Field, variable=4, file=thermal_m.odb, output variable=NT, bstep=4
** Name: frac_p   Type: Field
*Field, variable=2, file=thermal_p.odb, output variable=NT, bstep=4
** Name: temperature   Type: Temperature
*Temperature, file=thermal.odb, bstep=4
** 
** OUTPUT REQUESTS
** 
*Restart, write, frequency=0
** 
** FIELD OUTPUT: F-Output-1
** 
*Output, field
*Node Output
U, 
*Element Output, directions=YES
E, S, SDV
** 
** HISTORY OUTPUT: H-Output-1
** 
*Output, history, variable=PRESELECT
*End Step
