*yield
2
182.62305003687698 661.3864440848602 667.9603868460736 1428.1990362071958 207.19179622111085 10.0
55.531938467033186 308.4697864492573 316.40652782894625 603.6897620082716 71.4297106257962 1500.0
*shear
2
81896.80201859956 81920.87189978115 81920.87189978115 81908.63279131352 77676.03196280765 10.0
12017.060000000001 11789.552460294026 11789.552460294026 21512.53664154887 19529.736020241802 1500.0
*bulk
2
167080.16903043602 166327.27851478904 166327.27851478904 166925.17179857157 161329.1976260204 10.0
35613.47 56187.54764103906 56187.54764103906 87717.73968737938 76494.05005039876 1500.0
*density
2
7850.850343832831 7844.729494281448 7844.729494281448 7818.5693856442385 8104.547169846912 10.0
7275.29 7307.691730693472 7307.691730693472 7316.584694944568 7301.671558357022 1500.0
*trip
2
0.0 0.0 0.0 0.0 10.0
0.0 0.0 0.0 0.0 1500.0
